
     Program PWSCF v.7.6 starts on 23Sep2026 at  1:27:56 

     This program is part of the open-source Quantum ESPRESSO suite
     for quantum simulation of materials; please cite
         "P. Giannozzi et al., J. Phys.:Condens. Matter 21 395502 (2009);
         "P. Giannozzi et al., J. Phys.:Condens. Matter 29 465901 (2017);
         "P. Giannozzi et al., J. Chem. Phys. 152 154105 (2020);
          URL http://www.quantum-espresso.org", 
     in publications or presentations arising from this work. More details at
     http://www.quantum-espresso.org/quote

     Parallel version (MPI), running on     2 processors

     MPI processes distributed on     1 nodes
     0 MiB available memory on the printing compute node when the environment starts

     Reading input from Al.scf.inp

     Current dimensions of program PWSCF are:
     Max number of different atomic species (ntypx) = 10
     Max number of k-points (npk) =  40000
     Max angular momentum in pseudopotentials (lmaxx) =  4

     R & G space division:  proc/nbgrp/npool/nimage =       2
     Subspace diagonalization in iterative solution of the eigenvalue problem:
     a serial algorithm will be used


     Parallelization info
     --------------------
     sticks:   dense  smooth     PW     G-vecs:    dense   smooth      PW
     Min         384     189     60                 7164     2513     469
     Max         385     190     61                 7167     2516     472
     Sum         769     379    121                14331     5029     941

     Using Slab Decomposition



     bravais-lattice index     =            2
     lattice parameter (alat)  =       9.0000  a.u.
     unit-cell volume          =     182.2500 (a.u.)^3
     number of atoms/cell      =            1
     number of atomic types    =            1
     number of electrons       =         3.00
     number of Kohn-Sham states=            6
     kinetic-energy cutoff     =      35.0000  Ry
     charge density cutoff     =     280.0000  Ry
     scf convergence threshold =      1.0E-08
     mixing beta               =       0.7000
     number of iterations used =            8  plain     mixing
     Exchange-correlation= SLA  PW   PBE  PBE
                           (   1   4   3   4   0   0   0)

     celldm(1)=   9.000000  celldm(2)=   0.000000  celldm(3)=   0.000000
     celldm(4)=   0.000000  celldm(5)=   0.000000  celldm(6)=   0.000000

     crystal axes: (cart. coord. in units of alat)
               a(1) = (  -0.500000   0.000000   0.500000 )  
               a(2) = (   0.000000   0.500000   0.500000 )  
               a(3) = (  -0.500000   0.500000   0.000000 )  

     reciprocal axes: (cart. coord. in units 2 pi/alat)
               b(1) = ( -1.000000 -1.000000  1.000000 )  
               b(2) = (  1.000000  1.000000  1.000000 )  
               b(3) = ( -1.000000  1.000000 -1.000000 )  


     PseudoPot. # 1 for Al read from file:
     /Users/zhy/Aluminum-from-First-Principles/Al.pbe-n-van.UPF
     MD5 check sum: cbc97ad259b400557db688b98a6ada97
     Pseudo is Ultrasoft + core correction, Zval =  3.0
     Generated by new atomic code, or converted to UPF format
     Using radial grid of  893 points,  2 beta functions with: 
                l(1) =   0
                l(2) =   1
     Q(r) pseudized with  8 coefficients,  rinner =    0.900   0.900   0.900


     atomic species   valence    mass     pseudopotential
     Al                3.00    26.98200     Al( 1.00)

     48 Sym. Ops., with inversion, found



   Cartesian axes

     site n.     atom                  positions (alat units)
         1        Al     tau(   1) = (   0.0000000   0.0000000   0.0000000  )

     number of k points=    47  Methfessel-Paxton smearing, width (Ry)=  0.0200
                       cart. coord. in units 2pi/alat
        k(    1) = (   0.0000000   0.0000000   0.0000000), wk =   0.0020000
        k(    2) = (  -0.1000000   0.1000000  -0.1000000), wk =   0.0160000
        k(    3) = (  -0.2000000   0.2000000  -0.2000000), wk =   0.0160000
        k(    4) = (  -0.3000000   0.3000000  -0.3000000), wk =   0.0160000
        k(    5) = (  -0.4000000   0.4000000  -0.4000000), wk =   0.0160000
        k(    6) = (   0.5000000  -0.5000000   0.5000000), wk =   0.0080000
        k(    7) = (   0.0000000   0.2000000   0.0000000), wk =   0.0120000
        k(    8) = (  -0.1000000   0.3000000  -0.1000000), wk =   0.0480000
        k(    9) = (  -0.2000000   0.4000000  -0.2000000), wk =   0.0480000
        k(   10) = (  -0.3000000   0.5000000  -0.3000000), wk =   0.0480000
        k(   11) = (   0.6000000  -0.4000000   0.6000000), wk =   0.0480000
        k(   12) = (   0.5000000  -0.3000000   0.5000000), wk =   0.0480000
        k(   13) = (   0.4000000  -0.2000000   0.4000000), wk =   0.0480000
        k(   14) = (   0.3000000  -0.1000000   0.3000000), wk =   0.0480000
        k(   15) = (   0.2000000   0.0000000   0.2000000), wk =   0.0240000
        k(   16) = (   0.0000000   0.4000000   0.0000000), wk =   0.0120000
        k(   17) = (  -0.1000000   0.5000000  -0.1000000), wk =   0.0480000
        k(   18) = (  -0.2000000   0.6000000  -0.2000000), wk =   0.0480000
        k(   19) = (   0.7000000  -0.3000000   0.7000000), wk =   0.0480000
        k(   20) = (   0.6000000  -0.2000000   0.6000000), wk =   0.0480000
        k(   21) = (   0.5000000  -0.1000000   0.5000000), wk =   0.0480000
        k(   22) = (   0.4000000   0.0000000   0.4000000), wk =   0.0240000
        k(   23) = (   0.0000000   0.6000000   0.0000000), wk =   0.0120000
        k(   24) = (  -0.1000000   0.7000000  -0.1000000), wk =   0.0480000
        k(   25) = (   0.8000000  -0.2000000   0.8000000), wk =   0.0480000
        k(   26) = (   0.7000000  -0.1000000   0.7000000), wk =   0.0480000
        k(   27) = (   0.6000000   0.0000000   0.6000000), wk =   0.0240000
        k(   28) = (   0.0000000   0.8000000   0.0000000), wk =   0.0120000
        k(   29) = (   0.9000000  -0.1000000   0.9000000), wk =   0.0480000
        k(   30) = (   0.8000000   0.0000000   0.8000000), wk =   0.0240000
        k(   31) = (   0.0000000  -1.0000000   0.0000000), wk =   0.0060000
        k(   32) = (  -0.2000000   0.4000000   0.0000000), wk =   0.0480000
        k(   33) = (  -0.3000000   0.5000000  -0.1000000), wk =   0.0960000
        k(   34) = (   0.6000000  -0.4000000   0.8000000), wk =   0.0960000
        k(   35) = (   0.5000000  -0.3000000   0.7000000), wk =   0.0480000
        k(   36) = (  -0.2000000   0.6000000   0.0000000), wk =   0.0480000
        k(   37) = (   0.7000000  -0.3000000   0.9000000), wk =   0.0960000
        k(   38) = (   0.6000000  -0.2000000   0.8000000), wk =   0.0960000
        k(   39) = (   0.5000000  -0.1000000   0.7000000), wk =   0.0960000
        k(   40) = (   0.4000000   0.0000000   0.6000000), wk =   0.0480000
        k(   41) = (   0.8000000  -0.2000000   1.0000000), wk =   0.0480000
        k(   42) = (   0.7000000  -0.1000000   0.9000000), wk =   0.0960000
        k(   43) = (   0.6000000   0.0000000   0.8000000), wk =   0.0480000
        k(   44) = (  -0.2000000  -1.0000000   0.0000000), wk =   0.0240000
        k(   45) = (   0.6000000  -0.2000000   1.0000000), wk =   0.0480000
        k(   46) = (   0.5000000  -0.1000000   0.9000000), wk =   0.0480000
        k(   47) = (  -0.4000000  -1.0000000   0.0000000), wk =   0.0240000

     Dense  grid:    14331 G-vectors     FFT dimensions: (  36,  36,  36)

     Smooth grid:     5029 G-vectors     FFT dimensions: (  24,  24,  24)

     Estimated max dynamical RAM per process >       8.70 MB

     Estimated total dynamical RAM >      17.40 MB

     Initial potential from superposition of free atoms

     starting charge       2.9975, renormalised to       3.0000
     Starting wfcs are    4 randomized atomic wfcs +    2 random wfcs

     total cpu time spent up to now is        0.3 secs

     Self-consistent Calculation

     iteration #  1     ecut=    35.00 Ry     beta= 0.70
     Davidson diagonalization with overlap
     ethr =  1.00E-02,  avg # of iterations =  5.4

     Threshold (ethr) on eigenvalues was too large:
     Diagonalizing with lowered threshold

     Davidson diagonalization with overlap
     ethr =  1.72E-04,  avg # of iterations =  3.2

     total cpu time spent up to now is        0.6 secs

     total energy              =     -12.42021857 Ry
     estimated scf accuracy    <       0.00498892 Ry

     iteration #  2     ecut=    35.00 Ry     beta= 0.70
     Davidson diagonalization with overlap
     ethr =  1.66E-04,  avg # of iterations =  1.1

     total cpu time spent up to now is        0.6 secs

     total energy              =     -12.42033978 Ry
     estimated scf accuracy    <       0.00023725 Ry

     iteration #  3     ecut=    35.00 Ry     beta= 0.70
     Davidson diagonalization with overlap
     ethr =  7.91E-06,  avg # of iterations =  3.6

     total cpu time spent up to now is        0.7 secs

     total energy              =     -12.42037355 Ry
     estimated scf accuracy    <       0.00000109 Ry

     iteration #  4     ecut=    35.00 Ry     beta= 0.70
     Davidson diagonalization with overlap
     ethr =  3.63E-08,  avg # of iterations =  3.1

     total cpu time spent up to now is        0.8 secs

     total energy              =     -12.42037493 Ry
     estimated scf accuracy    <       0.00000006 Ry

     iteration #  5     ecut=    35.00 Ry     beta= 0.70
     Davidson diagonalization with overlap
     ethr =  1.98E-09,  avg # of iterations =  1.3

     total cpu time spent up to now is        0.9 secs

     End of self-consistent calculation

          k = 0.0000 0.0000 0.0000 (   609 PWs)   bands (ev):

    -4.4973  12.4210  12.4210  12.4210  13.9225  13.9225

          k =-0.1000 0.1000-0.1000 (   624 PWs)   bands (ev):

    -4.3032  10.3913  11.9538  11.9538  14.2063  14.5976

          k =-0.2000 0.2000-0.2000 (   628 PWs)   bands (ev):

    -3.7228   7.5450  11.3648  11.3648  13.9422  15.0952

          k =-0.3000 0.3000-0.3000 (   619 PWs)   bands (ev):

    -2.7631   4.8622  11.0010  11.0010  13.6987  14.2448

          k =-0.4000 0.4000-0.4000 (   628 PWs)   bands (ev):

    -1.4476   2.4894  10.8556  10.8556  13.4488  13.4488

          k = 0.5000-0.5000 0.5000 (   628 PWs)   bands (ev):

    -0.1806   0.8672  10.8319  10.8319  13.1456  13.6252

          k = 0.0000 0.2000 0.0000 (   625 PWs)   bands (ev):

    -4.2385  11.0458  11.0458  11.6652  12.6866  15.6155

          k =-0.1000 0.3000-0.1000 (   631 PWs)   bands (ev):

    -3.7868   8.6184  10.3336  11.2247  12.9951  14.7605

          k =-0.2000 0.4000-0.2000 (   628 PWs)   bands (ev):

    -2.9531   5.8803   9.9239  10.5866  12.6574  15.0397

          k =-0.3000 0.5000-0.3000 (   630 PWs)   bands (ev):

    -1.7518   3.4002   9.8336   9.9490  12.1423  15.0046

          k = 0.6000-0.4000 0.6000 (   629 PWs)   bands (ev):

    -0.2892   1.3486   9.3548  10.0530  12.1859  14.2616

          k = 0.5000-0.3000 0.5000 (   633 PWs)   bands (ev):

    -0.7787   1.9564   8.9518  10.5461  12.7175  13.8909

          k = 0.4000-0.2000 0.4000 (   628 PWs)   bands (ev):

    -2.1915   4.1923   8.8345  11.2294  13.6339  13.9731

          k = 0.3000-0.1000 0.3000 (   630 PWs)   bands (ev):

    -3.2731   6.7747   9.0378  11.9535  14.5119  14.6961

          k = 0.2000 0.0000 0.2000 (   626 PWs)   bands (ev):

    -3.9803   9.5446   9.5913  12.4373  14.4233  14.6570

          k = 0.0000 0.4000 0.0000 (   641 PWs)   bands (ev):

    -3.4644   9.5095   9.5095   9.9567  11.0434  12.8317

          k =-0.1000 0.5000-0.1000 (   626 PWs)   bands (ev):

    -2.7589   7.1836   8.9971   9.1361  11.0933  12.6239

          k =-0.2000 0.6000-0.2000 (   623 PWs)   bands (ev):

    -1.6801   4.6545   8.0673   8.8166  10.7991  14.4224

          k = 0.7000-0.3000 0.7000 (   632 PWs)   bands (ev):

    -0.2704   2.4382   7.1646   8.9702  10.8892  16.3079

          k = 0.6000-0.2000 0.6000 (   643 PWs)   bands (ev):

     0.2139   1.8401   6.5528   9.4493  11.3932  15.7799

          k = 0.5000-0.1000 0.5000 (   634 PWs)   bands (ev):

    -1.2458   3.8856   6.2765  10.2272  12.2750  15.5575

          k = 0.4000 0.0000 0.4000 (   630 PWs)   bands (ev):

    -2.4426   6.3123   6.3850  11.2141  13.4821  15.6080

          k = 0.0000 0.6000 0.0000 (   636 PWs)   bands (ev):

    -2.1825   7.4007   8.3745   8.3745   9.7955  10.7542

          k =-0.1000 0.7000-0.1000 (   638 PWs)   bands (ev):

    -1.2305   5.8044   6.6535   8.0856   9.8640  11.5546

          k = 0.8000-0.2000 0.8000 (   644 PWs)   bands (ev):

     0.0745   3.8301   5.2326   8.1365   9.9208  13.7906

          k = 0.7000-0.1000 0.7000 (   647 PWs)   bands (ev):

     1.3241   2.3040   4.3951   8.5249  10.3411  16.2992

          k = 0.6000 0.0000 0.6000 (   648 PWs)   bands (ev):

     0.0497   3.8784   4.0228   9.2375  11.1354  17.4136

          k = 0.0000 0.8000 0.0000 (   628 PWs)   bands (ev):

    -0.4067   4.4994   7.6854   7.6854   9.0340   9.7932

          k = 0.9000-0.1000 0.9000 (   644 PWs)   bands (ev):

     0.7770   3.2243   5.9176   7.6257   9.3104  11.0537

          k = 0.8000 0.0000 0.8000 (   640 PWs)   bands (ev):

     2.0888   2.4027   3.9759   7.9080   9.6468  13.5711

          k = 0.0000-1.0000 0.0000 (   636 PWs)   bands (ev):

     1.7696   1.9092   7.4543   7.4543   8.7785   9.5016

          k =-0.2000 0.4000 0.0000 (   634 PWs)   bands (ev):

    -3.2082   7.9646   7.9704  11.0030  13.0254  13.7625

          k =-0.3000 0.5000-0.1000 (   632 PWs)   bands (ev):

    -2.2515   5.3307   7.6448   9.9728  12.9493  14.6634

          k = 0.6000-0.4000 0.8000 (   639 PWs)   bands (ev):

    -0.9396   2.9754   7.6295   9.0429  12.8649  14.1897

          k = 0.5000-0.3000 0.7000 (   640 PWs)   bands (ev):

     0.3283   1.3558   7.7396   8.6059  12.9435  13.7897

          k =-0.2000 0.6000 0.0000 (   638 PWs)   bands (ev):

    -1.9302   6.6348   6.7766   8.2159  11.8551  12.2719

          k = 0.7000-0.3000 0.9000 (   646 PWs)   bands (ev):

    -0.7362   4.3268   6.3592   7.2777  11.9638  14.1356

          k = 0.6000-0.2000 0.8000 (   644 PWs)   bands (ev):

     0.7203   2.3115   5.7711   7.2582  12.2285  15.5268

          k = 0.5000-0.1000 0.7000 (   643 PWs)   bands (ev):

     0.2243   2.9293   5.2955   7.8343  12.8165  15.2114

          k = 0.4000 0.0000 0.6000 (   640 PWs)   bands (ev):

    -1.1784   5.0996   5.1742   8.7856  13.6152  14.8962

          k = 0.8000-0.2000 1.0000 (   642 PWs)   bands (ev):

    -0.1622   4.6269   6.0531   6.4882  11.1356  11.5059

          k = 0.7000-0.1000 0.9000 (   644 PWs)   bands (ev):

     1.2318   3.4121   4.3184   6.4327  11.4817  13.7278

          k = 0.6000 0.0000 0.8000 (   647 PWs)   bands (ev):

     1.6282   3.1416   3.4277   6.9473  12.0016  16.2444

          k =-0.2000-1.0000 0.0000 (   640 PWs)   bands (ev):

     1.9741   2.1561   5.8110   6.1446  10.8937  11.2583

          k = 0.6000-0.2000 1.0000 (   647 PWs)   bands (ev):

     0.5561   4.2843   4.3667   5.9740  14.0265  14.2157

          k = 0.5000-0.1000 0.9000 (   640 PWs)   bands (ev):

     1.8103   2.7706   4.4491   5.4507  14.1528  15.1275

          k =-0.4000-1.0000 0.0000 (   646 PWs)   bands (ev):

     2.4556   2.8954   4.1218   4.7810  13.9551  13.9851

     the Fermi energy is     3.5860 ev

!    total energy              =     -12.42037493 Ry
     estimated scf accuracy    <          1.7E-09 Ry
     smearing contrib. (-TS)   =       0.00025220 Ry
     internal energy E=F+TS    =     -12.42062713 Ry

     The total energy is F=E-TS. E is the sum of the following terms:
     one-electron contribution =       1.95843766 Ry
     hartree contribution      =       0.02549049 Ry
     xc contribution           =      -9.81969321 Ry
     ewald contribution        =      -4.58486207 Ry

     convergence has been achieved in   5 iterations

     Forces acting on atoms (cartesian axes, Ry/au):

     atom    1 type  1   force =     0.00000000    0.00000000    0.00000000

     Total force =     0.000000     Total SCF correction =     0.000000


     Computing stress (Cartesian axis) and pressure

          total   stress  (Ry/bohr**3)                   (kbar)     P=     -114.05
  -0.00077532   0.00000000  -0.00000000         -114.05        0.00       -0.00
   0.00000000  -0.00077532   0.00000000            0.00     -114.05        0.00
   0.00000000   0.00000000  -0.00077532            0.00        0.00     -114.05


     Writing all to output data dir /Users/zhy/Aluminum-from-First-Principles/convergence-runs/smearing/ecut-035.0-ry_k-10x10x10_degauss-0.020-ry/qe-out/aluminum_ecut-035p0-ry_k-10x10x10_degauss-0p020-ry.save/ :
     XML data file, charge density, pseudopotentials, collected wavefunctions

     init_run     :      0.31s CPU      0.32s WALL (       1 calls)
     electrons    :      0.56s CPU      0.59s WALL (       1 calls)
     forces       :      0.01s CPU      0.01s WALL (       1 calls)
     stress       :      0.03s CPU      0.03s WALL (       1 calls)

     Called by init_run:
     wfcinit      :      0.03s CPU      0.03s WALL (       1 calls)
     potinit      :      0.10s CPU      0.10s WALL (       1 calls)
     hinit0       :      0.17s CPU      0.17s WALL (       1 calls)

     Called by electrons:
     c_bands      :      0.44s CPU      0.46s WALL (       6 calls)
     sum_band     :      0.09s CPU      0.09s WALL (       6 calls)
     v_of_rho     :      0.03s CPU      0.03s WALL (       6 calls)
     newd         :      0.01s CPU      0.01s WALL (       6 calls)
     mix_rho      :      0.00s CPU      0.00s WALL (       6 calls)

     Called by c_bands:
     init_us_2    :      0.01s CPU      0.01s WALL (     705 calls)
     cegterg      :      0.43s CPU      0.45s WALL (     282 calls)

     Called by *egterg:
     cdiaghg      :      0.03s CPU      0.03s WALL (    1063 calls)
     h_psi        :      0.38s CPU      0.40s WALL (    1157 calls)
     s_psi        :      0.00s CPU      0.00s WALL (    1157 calls)
     g_psi        :      0.00s CPU      0.00s WALL (     828 calls)

     Called by h_psi:
     h_psi:calbec :      0.01s CPU      0.01s WALL (    1157 calls)
     vloc_psi     :      0.37s CPU      0.39s WALL (    1157 calls)
     add_vuspsi   :      0.00s CPU      0.00s WALL (    1157 calls)

     General routines
     calbec       :      0.01s CPU      0.01s WALL (    2238 calls)
     fft          :      0.16s CPU      0.16s WALL (     102 calls)
     ffts         :      0.10s CPU      0.10s WALL (      12 calls)
     fftw         :      0.40s CPU      0.41s WALL (   11210 calls)
     interpolate  :      0.10s CPU      0.10s WALL (       6 calls)

     Parallel routines

     PWSCF        :      0.92s CPU      0.98s WALL


   This run was terminated on:   1:27:57  23Sep2026            

=------------------------------------------------------------------------------=
   JOB DONE.
=------------------------------------------------------------------------------=
Note: The following floating-point exceptions are signalling: IEEE_INVALID_FLAG IEEE_DIVIDE_BY_ZERO IEEE_UNDERFLOW_FLAG
Note: The following floating-point exceptions are signalling: IEEE_UNDERFLOW_FLAG
