
     Program PWSCF v.7.6 starts on 22Sep2026 at 23:45:12 

     This program is part of the open-source Quantum ESPRESSO suite
     for quantum simulation of materials; please cite
         "P. Giannozzi et al., J. Phys.:Condens. Matter 21 395502 (2009);
         "P. Giannozzi et al., J. Phys.:Condens. Matter 29 465901 (2017);
         "P. Giannozzi et al., J. Chem. Phys. 152 154105 (2020);
          URL http://www.quantum-espresso.org", 
     in publications or presentations arising from this work. More details at
     http://www.quantum-espresso.org/quote

     Parallel version (MPI), running on     2 processors

     MPI processes distributed on     1 nodes
     0 MiB available memory on the printing compute node when the environment starts

     Reading input from Al.scf.inp

     Current dimensions of program PWSCF are:
     Max number of different atomic species (ntypx) = 10
     Max number of k-points (npk) =  40000
     Max angular momentum in pseudopotentials (lmaxx) =  4

     R & G space division:  proc/nbgrp/npool/nimage =       2
     Subspace diagonalization in iterative solution of the eigenvalue problem:
     a serial algorithm will be used


     Parallelization info
     --------------------
     sticks:   dense  smooth     PW     G-vecs:    dense   smooth      PW
     Min         168      81     30                 2007      728     165
     Max         169      82     31                 2008      731     166
     Sum         337     163     61                 4015     1459     331

     Using Slab Decomposition



     bravais-lattice index     =            2
     lattice parameter (alat)  =       9.0000  a.u.
     unit-cell volume          =     182.2500 (a.u.)^3
     number of atoms/cell      =            1
     number of atomic types    =            1
     number of electrons       =         3.00
     number of Kohn-Sham states=            6
     kinetic-energy cutoff     =      15.0000  Ry
     charge density cutoff     =     120.0000  Ry
     scf convergence threshold =      1.0E-08
     mixing beta               =       0.7000
     number of iterations used =            8  plain     mixing
     Exchange-correlation= SLA  PW   PBE  PBE
                           (   1   4   3   4   0   0   0)

     celldm(1)=   9.000000  celldm(2)=   0.000000  celldm(3)=   0.000000
     celldm(4)=   0.000000  celldm(5)=   0.000000  celldm(6)=   0.000000

     crystal axes: (cart. coord. in units of alat)
               a(1) = (  -0.500000   0.000000   0.500000 )  
               a(2) = (   0.000000   0.500000   0.500000 )  
               a(3) = (  -0.500000   0.500000   0.000000 )  

     reciprocal axes: (cart. coord. in units 2 pi/alat)
               b(1) = ( -1.000000 -1.000000  1.000000 )  
               b(2) = (  1.000000  1.000000  1.000000 )  
               b(3) = ( -1.000000  1.000000 -1.000000 )  


     PseudoPot. # 1 for Al read from file:
     /Users/zhy/Aluminum-from-First-Principles/Al.pbe-n-van.UPF
     MD5 check sum: cbc97ad259b400557db688b98a6ada97
     Pseudo is Ultrasoft + core correction, Zval =  3.0
     Generated by new atomic code, or converted to UPF format
     Using radial grid of  893 points,  2 beta functions with: 
                l(1) =   0
                l(2) =   1
     Q(r) pseudized with  8 coefficients,  rinner =    0.900   0.900   0.900


     atomic species   valence    mass     pseudopotential
     Al                3.00    26.98200     Al( 1.00)

     48 Sym. Ops., with inversion, found



   Cartesian axes

     site n.     atom                  positions (alat units)
         1        Al     tau(   1) = (   0.0000000   0.0000000   0.0000000  )

     number of k points=    29  Methfessel-Paxton smearing, width (Ry)=  0.0500
                       cart. coord. in units 2pi/alat
        k(    1) = (   0.0000000   0.0000000   0.0000000), wk =   0.0039062
        k(    2) = (  -0.1250000   0.1250000  -0.1250000), wk =   0.0312500
        k(    3) = (  -0.2500000   0.2500000  -0.2500000), wk =   0.0312500
        k(    4) = (  -0.3750000   0.3750000  -0.3750000), wk =   0.0312500
        k(    5) = (   0.5000000  -0.5000000   0.5000000), wk =   0.0156250
        k(    6) = (   0.0000000   0.2500000   0.0000000), wk =   0.0234375
        k(    7) = (  -0.1250000   0.3750000  -0.1250000), wk =   0.0937500
        k(    8) = (  -0.2500000   0.5000000  -0.2500000), wk =   0.0937500
        k(    9) = (   0.6250000  -0.3750000   0.6250000), wk =   0.0937500
        k(   10) = (   0.5000000  -0.2500000   0.5000000), wk =   0.0937500
        k(   11) = (   0.3750000  -0.1250000   0.3750000), wk =   0.0937500
        k(   12) = (   0.2500000   0.0000000   0.2500000), wk =   0.0468750
        k(   13) = (   0.0000000   0.5000000   0.0000000), wk =   0.0234375
        k(   14) = (  -0.1250000   0.6250000  -0.1250000), wk =   0.0937500
        k(   15) = (   0.7500000  -0.2500000   0.7500000), wk =   0.0937500
        k(   16) = (   0.6250000  -0.1250000   0.6250000), wk =   0.0937500
        k(   17) = (   0.5000000   0.0000000   0.5000000), wk =   0.0468750
        k(   18) = (   0.0000000   0.7500000   0.0000000), wk =   0.0234375
        k(   19) = (   0.8750000  -0.1250000   0.8750000), wk =   0.0937500
        k(   20) = (   0.7500000   0.0000000   0.7500000), wk =   0.0468750
        k(   21) = (   0.0000000  -1.0000000   0.0000000), wk =   0.0117188
        k(   22) = (  -0.2500000   0.5000000   0.0000000), wk =   0.0937500
        k(   23) = (   0.6250000  -0.3750000   0.8750000), wk =   0.1875000
        k(   24) = (   0.5000000  -0.2500000   0.7500000), wk =   0.0937500
        k(   25) = (   0.7500000  -0.2500000   1.0000000), wk =   0.0937500
        k(   26) = (   0.6250000  -0.1250000   0.8750000), wk =   0.1875000
        k(   27) = (   0.5000000   0.0000000   0.7500000), wk =   0.0937500
        k(   28) = (  -0.2500000  -1.0000000   0.0000000), wk =   0.0468750
        k(   29) = (  -0.5000000  -1.0000000   0.0000000), wk =   0.0234375

     Dense  grid:     4015 G-vectors     FFT dimensions: (  24,  24,  24)

     Smooth grid:     1459 G-vectors     FFT dimensions: (  15,  15,  15)

     Estimated max dynamical RAM per process >       2.36 MB

     Estimated total dynamical RAM >       4.72 MB

     Initial potential from superposition of free atoms

     starting charge       2.9975, renormalised to       3.0000
     Starting wfcs are    4 randomized atomic wfcs +    2 random wfcs

     total cpu time spent up to now is        0.2 secs

     Self-consistent Calculation

     iteration #  1     ecut=    15.00 Ry     beta= 0.70
     Davidson diagonalization with overlap
     ethr =  1.00E-02,  avg # of iterations =  5.0

     Threshold (ethr) on eigenvalues was too large:
     Diagonalizing with lowered threshold

     Davidson diagonalization with overlap
     ethr =  1.96E-04,  avg # of iterations =  2.3

     total cpu time spent up to now is        0.2 secs

     total energy              =     -12.41355087 Ry
     estimated scf accuracy    <       0.00581306 Ry

     iteration #  2     ecut=    15.00 Ry     beta= 0.70
     Davidson diagonalization with overlap
     ethr =  1.94E-04,  avg # of iterations =  1.0

     total cpu time spent up to now is        0.2 secs

     total energy              =     -12.41367196 Ry
     estimated scf accuracy    <       0.00026509 Ry

     iteration #  3     ecut=    15.00 Ry     beta= 0.70
     Davidson diagonalization with overlap
     ethr =  8.84E-06,  avg # of iterations =  3.4

     total cpu time spent up to now is        0.2 secs

     total energy              =     -12.41369275 Ry
     estimated scf accuracy    <       0.00000082 Ry

     iteration #  4     ecut=    15.00 Ry     beta= 0.70
     Davidson diagonalization with overlap
     ethr =  2.73E-08,  avg # of iterations =  2.7

     total cpu time spent up to now is        0.2 secs

     total energy              =     -12.41369352 Ry
     estimated scf accuracy    <       0.00000007 Ry

     iteration #  5     ecut=    15.00 Ry     beta= 0.70
     Davidson diagonalization with overlap
     ethr =  2.25E-09,  avg # of iterations =  1.5

     total cpu time spent up to now is        0.3 secs

     End of self-consistent calculation

          k = 0.0000 0.0000 0.0000 (   169 PWs)   bands (ev):

    -4.4978  12.5680  12.5680  12.5680  14.0504  14.0504

          k =-0.1250 0.1250-0.1250 (   172 PWs)   bands (ev):

    -4.1940   9.7720  11.9194  11.9194  14.3017  14.9946

          k =-0.2500 0.2500-0.2500 (   177 PWs)   bands (ev):

    -3.2873   6.2205  11.2681  11.2681  13.9543  14.8690

          k =-0.3750 0.3750-0.3750 (   177 PWs)   bands (ev):

    -1.8005   3.0757  10.9878  10.9878  13.7295  13.7296

          k = 0.5000-0.5000 0.5000 (   180 PWs)   bands (ev):

    -0.1733   0.8895  10.9435  10.9435  13.2505  13.2505

          k = 0.0000 0.2500 0.0000 (   173 PWs)   bands (ev):

    -4.0927  10.7352  10.7352  11.4430  12.3426  15.3563

          k =-0.1250 0.3750-0.1250 (   172 PWs)   bands (ev):

    -3.3866   7.5993   9.9374  10.7351  12.6112  14.2602

          k =-0.2500 0.5000-0.2500 (   181 PWs)   bands (ev):

    -2.0899   4.3140   9.6423   9.7815  11.9165  15.6215

          k = 0.6250-0.3750 0.6250 (   174 PWs)   bands (ev):

    -0.3008   1.6016   8.8900   9.8606  11.9296  14.8755

          k = 0.5000-0.2500 0.5000 (   177 PWs)   bands (ev):

    -0.9272   2.4144   8.3486  10.5478  12.6725  14.3791

          k = 0.3750-0.1250 0.3750 (   175 PWs)   bands (ev):

    -2.5865   5.3655   8.3016  11.5727  13.9965  14.5447

          k = 0.2500 0.0000 0.2500 (   174 PWs)   bands (ev):

    -3.6890   8.7822   8.7845  12.4792  14.8317  15.0647

          k = 0.0000 0.5000 0.0000 (   178 PWs)   bands (ev):

    -2.8829   8.8680   8.9670   8.9670  10.4364  11.6865

          k =-0.1250 0.6250-0.1250 (   182 PWs)   bands (ev):

    -1.7844   6.0173   7.5315   8.5105  10.3991  12.5692

          k = 0.7500-0.2500 0.7500 (   184 PWs)   bands (ev):

    -0.1309   3.1522   6.1804   8.5884  10.4370  15.3567

          k = 0.6250-0.1250 0.6250 (   178 PWs)   bands (ev):

     0.4815   2.3715   5.3486   9.1933  11.0859  16.9715

          k = 0.5000 0.0000 0.5000 (   180 PWs)   bands (ev):

    -1.2985   5.0205   5.1227  10.2797  12.3145  16.5075

          k = 0.0000 0.7500 0.0000 (   182 PWs)   bands (ev):

    -0.8865   5.2566   7.8797   7.8797   9.2452  10.0417

          k = 0.8750-0.1250 0.8750 (   180 PWs)   bands (ev):

     0.5821   3.6266   5.5176   7.7857   9.5054  11.8059

          k = 0.7500 0.0000 0.7500 (   182 PWs)   bands (ev):

     2.0243   2.7097   3.4154   8.2304  10.0074  15.0716

          k = 0.0000-1.0000 0.0000 (   190 PWs)   bands (ev):

     1.7841   1.9353   7.5145   7.5145   8.8438   9.5768

          k =-0.2500 0.5000 0.0000 (   176 PWs)   bands (ev):

    -2.4844   6.9186   6.9288   9.8808  13.2037  13.5294

          k = 0.6250-0.3750 0.8750 (   179 PWs)   bands (ev):

    -1.0042   3.8307   6.7671   8.4989  13.1649  14.7024

          k = 0.5000-0.2500 0.7500 (   172 PWs)   bands (ev):

     0.6233   1.6539   6.9028   7.8257  13.2619  14.2034

          k = 0.7500-0.2500 1.0000 (   183 PWs)   bands (ev):

    -0.5000   5.2316   5.7762   6.5500  12.0895  12.3960

          k = 0.6250-0.1250 0.8750 (   181 PWs)   bands (ev):

     1.2722   3.0476   4.5887   6.3198  12.4947  15.2354

          k = 0.5000 0.0000 0.7500 (   180 PWs)   bands (ev):

     0.6268   3.8676   3.9769   7.1131  13.2546  16.1789

          k =-0.2500-1.0000 0.0000 (   182 PWs)   bands (ev):

     2.0976   2.3227   5.3960   5.7863  11.7120  12.0250

          k =-0.5000-1.0000 0.0000 (   176 PWs)   bands (ev):

     2.5963   3.4823   3.4823   4.5790  14.9610  15.8343

     the Fermi energy is     3.6345 ev

!    total energy              =     -12.41369353 Ry
     estimated scf accuracy    <          1.5E-09 Ry
     smearing contrib. (-TS)   =      -0.00100835 Ry
     internal energy E=F+TS    =     -12.41268518 Ry

     The total energy is F=E-TS. E is the sum of the following terms:
     one-electron contribution =       1.95766422 Ry
     hartree contribution      =       0.02462071 Ry
     xc contribution           =      -9.81010800 Ry
     ewald contribution        =      -4.58486212 Ry

     convergence has been achieved in   5 iterations

     Forces acting on atoms (cartesian axes, Ry/au):

     atom    1 type  1   force =     0.00000000    0.00000000    0.00000000

     Total force =     0.000000     Total SCF correction =     0.000000


     Computing stress (Cartesian axis) and pressure

          total   stress  (Ry/bohr**3)                   (kbar)     P=     -113.88
  -0.00077415   0.00000000  -0.00000000         -113.88        0.00       -0.00
  -0.00000000  -0.00077415  -0.00000000           -0.00     -113.88       -0.00
  -0.00000000  -0.00000000  -0.00077415           -0.00       -0.00     -113.88


     Writing all to output data dir /Users/zhy/Aluminum-from-First-Principles/convergence-runs/cutoff-kmesh/ecut-015.0-ry_k-08x08x08_degauss-0.050-ry/qe-out/aluminum_ecut-015p0-ry_k-08x08x08_degauss-0p050-ry.save/ :
     XML data file, charge density, pseudopotentials, collected wavefunctions

     init_run     :      0.13s CPU      0.14s WALL (       1 calls)
     electrons    :      0.09s CPU      0.10s WALL (       1 calls)
     forces       :      0.00s CPU      0.00s WALL (       1 calls)
     stress       :      0.01s CPU      0.01s WALL (       1 calls)

     Called by init_run:
     wfcinit      :      0.00s CPU      0.01s WALL (       1 calls)
     potinit      :      0.02s CPU      0.02s WALL (       1 calls)
     hinit0       :      0.11s CPU      0.11s WALL (       1 calls)

     Called by electrons:
     c_bands      :      0.07s CPU      0.08s WALL (       6 calls)
     sum_band     :      0.01s CPU      0.02s WALL (       6 calls)
     v_of_rho     :      0.01s CPU      0.01s WALL (       6 calls)
     newd         :      0.00s CPU      0.00s WALL (       6 calls)
     mix_rho      :      0.00s CPU      0.00s WALL (       6 calls)

     Called by c_bands:
     init_us_2    :      0.00s CPU      0.00s WALL (     435 calls)
     cegterg      :      0.07s CPU      0.07s WALL (     174 calls)

     Called by *egterg:
     cdiaghg      :      0.01s CPU      0.01s WALL (     605 calls)
     h_psi        :      0.05s CPU      0.05s WALL (     663 calls)
     s_psi        :      0.00s CPU      0.00s WALL (     663 calls)
     g_psi        :      0.00s CPU      0.00s WALL (     460 calls)

     Called by h_psi:
     h_psi:calbec :      0.00s CPU      0.00s WALL (     663 calls)
     vloc_psi     :      0.05s CPU      0.05s WALL (     663 calls)
     add_vuspsi   :      0.00s CPU      0.00s WALL (     663 calls)

     General routines
     calbec       :      0.00s CPU      0.00s WALL (    1330 calls)
     fft          :      0.10s CPU      0.10s WALL (     102 calls)
     ffts         :      0.01s CPU      0.01s WALL (      12 calls)
     fftw         :      0.05s CPU      0.05s WALL (    6678 calls)
     interpolate  :      0.01s CPU      0.01s WALL (       6 calls)

     Parallel routines

     PWSCF        :      0.25s CPU      0.27s WALL


   This run was terminated on:  23:45:12  22Sep2026            

=------------------------------------------------------------------------------=
   JOB DONE.
=------------------------------------------------------------------------------=
Note: The following floating-point exceptions are signalling: IEEE_INVALID_FLAG IEEE_DIVIDE_BY_ZERO IEEE_UNDERFLOW_FLAG
Note: The following floating-point exceptions are signalling: IEEE_UNDERFLOW_FLAG
