
     Program PWSCF v.7.6 starts on 23Sep2026 at  1:28: 5 

     This program is part of the open-source Quantum ESPRESSO suite
     for quantum simulation of materials; please cite
         "P. Giannozzi et al., J. Phys.:Condens. Matter 21 395502 (2009);
         "P. Giannozzi et al., J. Phys.:Condens. Matter 29 465901 (2017);
         "P. Giannozzi et al., J. Chem. Phys. 152 154105 (2020);
          URL http://www.quantum-espresso.org", 
     in publications or presentations arising from this work. More details at
     http://www.quantum-espresso.org/quote

     Parallel version (MPI), running on     2 processors

     MPI processes distributed on     1 nodes
     0 MiB available memory on the printing compute node when the environment starts

     Reading input from Al.scf.inp

     Current dimensions of program PWSCF are:
     Max number of different atomic species (ntypx) = 10
     Max number of k-points (npk) =  40000
     Max angular momentum in pseudopotentials (lmaxx) =  4

     R & G space division:  proc/nbgrp/npool/nimage =       2
     Subspace diagonalization in iterative solution of the eigenvalue problem:
     a serial algorithm will be used


     Parallelization info
     --------------------
     sticks:   dense  smooth     PW     G-vecs:    dense   smooth      PW
     Min         384     189     60                 7164     2513     469
     Max         385     190     61                 7167     2516     472
     Sum         769     379    121                14331     5029     941

     Using Slab Decomposition



     bravais-lattice index     =            2
     lattice parameter (alat)  =       9.0000  a.u.
     unit-cell volume          =     182.2500 (a.u.)^3
     number of atoms/cell      =            1
     number of atomic types    =            1
     number of electrons       =         3.00
     number of Kohn-Sham states=            6
     kinetic-energy cutoff     =      35.0000  Ry
     charge density cutoff     =     280.0000  Ry
     scf convergence threshold =      1.0E-08
     mixing beta               =       0.7000
     number of iterations used =            8  plain     mixing
     Exchange-correlation= SLA  PW   PBE  PBE
                           (   1   4   3   4   0   0   0)

     celldm(1)=   9.000000  celldm(2)=   0.000000  celldm(3)=   0.000000
     celldm(4)=   0.000000  celldm(5)=   0.000000  celldm(6)=   0.000000

     crystal axes: (cart. coord. in units of alat)
               a(1) = (  -0.500000   0.000000   0.500000 )  
               a(2) = (   0.000000   0.500000   0.500000 )  
               a(3) = (  -0.500000   0.500000   0.000000 )  

     reciprocal axes: (cart. coord. in units 2 pi/alat)
               b(1) = ( -1.000000 -1.000000  1.000000 )  
               b(2) = (  1.000000  1.000000  1.000000 )  
               b(3) = ( -1.000000  1.000000 -1.000000 )  


     PseudoPot. # 1 for Al read from file:
     /Users/zhy/Aluminum-from-First-Principles/Al.pbe-n-van.UPF
     MD5 check sum: cbc97ad259b400557db688b98a6ada97
     Pseudo is Ultrasoft + core correction, Zval =  3.0
     Generated by new atomic code, or converted to UPF format
     Using radial grid of  893 points,  2 beta functions with: 
                l(1) =   0
                l(2) =   1
     Q(r) pseudized with  8 coefficients,  rinner =    0.900   0.900   0.900


     atomic species   valence    mass     pseudopotential
     Al                3.00    26.98200     Al( 1.00)

     48 Sym. Ops., with inversion, found



   Cartesian axes

     site n.     atom                  positions (alat units)
         1        Al     tau(   1) = (   0.0000000   0.0000000   0.0000000  )

     number of k points=    47  Methfessel-Paxton smearing, width (Ry)=  0.0100
                       cart. coord. in units 2pi/alat
        k(    1) = (   0.0000000   0.0000000   0.0000000), wk =   0.0020000
        k(    2) = (  -0.1000000   0.1000000  -0.1000000), wk =   0.0160000
        k(    3) = (  -0.2000000   0.2000000  -0.2000000), wk =   0.0160000
        k(    4) = (  -0.3000000   0.3000000  -0.3000000), wk =   0.0160000
        k(    5) = (  -0.4000000   0.4000000  -0.4000000), wk =   0.0160000
        k(    6) = (   0.5000000  -0.5000000   0.5000000), wk =   0.0080000
        k(    7) = (   0.0000000   0.2000000   0.0000000), wk =   0.0120000
        k(    8) = (  -0.1000000   0.3000000  -0.1000000), wk =   0.0480000
        k(    9) = (  -0.2000000   0.4000000  -0.2000000), wk =   0.0480000
        k(   10) = (  -0.3000000   0.5000000  -0.3000000), wk =   0.0480000
        k(   11) = (   0.6000000  -0.4000000   0.6000000), wk =   0.0480000
        k(   12) = (   0.5000000  -0.3000000   0.5000000), wk =   0.0480000
        k(   13) = (   0.4000000  -0.2000000   0.4000000), wk =   0.0480000
        k(   14) = (   0.3000000  -0.1000000   0.3000000), wk =   0.0480000
        k(   15) = (   0.2000000   0.0000000   0.2000000), wk =   0.0240000
        k(   16) = (   0.0000000   0.4000000   0.0000000), wk =   0.0120000
        k(   17) = (  -0.1000000   0.5000000  -0.1000000), wk =   0.0480000
        k(   18) = (  -0.2000000   0.6000000  -0.2000000), wk =   0.0480000
        k(   19) = (   0.7000000  -0.3000000   0.7000000), wk =   0.0480000
        k(   20) = (   0.6000000  -0.2000000   0.6000000), wk =   0.0480000
        k(   21) = (   0.5000000  -0.1000000   0.5000000), wk =   0.0480000
        k(   22) = (   0.4000000   0.0000000   0.4000000), wk =   0.0240000
        k(   23) = (   0.0000000   0.6000000   0.0000000), wk =   0.0120000
        k(   24) = (  -0.1000000   0.7000000  -0.1000000), wk =   0.0480000
        k(   25) = (   0.8000000  -0.2000000   0.8000000), wk =   0.0480000
        k(   26) = (   0.7000000  -0.1000000   0.7000000), wk =   0.0480000
        k(   27) = (   0.6000000   0.0000000   0.6000000), wk =   0.0240000
        k(   28) = (   0.0000000   0.8000000   0.0000000), wk =   0.0120000
        k(   29) = (   0.9000000  -0.1000000   0.9000000), wk =   0.0480000
        k(   30) = (   0.8000000   0.0000000   0.8000000), wk =   0.0240000
        k(   31) = (   0.0000000  -1.0000000   0.0000000), wk =   0.0060000
        k(   32) = (  -0.2000000   0.4000000   0.0000000), wk =   0.0480000
        k(   33) = (  -0.3000000   0.5000000  -0.1000000), wk =   0.0960000
        k(   34) = (   0.6000000  -0.4000000   0.8000000), wk =   0.0960000
        k(   35) = (   0.5000000  -0.3000000   0.7000000), wk =   0.0480000
        k(   36) = (  -0.2000000   0.6000000   0.0000000), wk =   0.0480000
        k(   37) = (   0.7000000  -0.3000000   0.9000000), wk =   0.0960000
        k(   38) = (   0.6000000  -0.2000000   0.8000000), wk =   0.0960000
        k(   39) = (   0.5000000  -0.1000000   0.7000000), wk =   0.0960000
        k(   40) = (   0.4000000   0.0000000   0.6000000), wk =   0.0480000
        k(   41) = (   0.8000000  -0.2000000   1.0000000), wk =   0.0480000
        k(   42) = (   0.7000000  -0.1000000   0.9000000), wk =   0.0960000
        k(   43) = (   0.6000000   0.0000000   0.8000000), wk =   0.0480000
        k(   44) = (  -0.2000000  -1.0000000   0.0000000), wk =   0.0240000
        k(   45) = (   0.6000000  -0.2000000   1.0000000), wk =   0.0480000
        k(   46) = (   0.5000000  -0.1000000   0.9000000), wk =   0.0480000
        k(   47) = (  -0.4000000  -1.0000000   0.0000000), wk =   0.0240000

     Dense  grid:    14331 G-vectors     FFT dimensions: (  36,  36,  36)

     Smooth grid:     5029 G-vectors     FFT dimensions: (  24,  24,  24)

     Estimated max dynamical RAM per process >       8.70 MB

     Estimated total dynamical RAM >      17.40 MB

     Initial potential from superposition of free atoms

     starting charge       2.9975, renormalised to       3.0000
     Starting wfcs are    4 randomized atomic wfcs +    2 random wfcs

     total cpu time spent up to now is        0.6 secs

     Self-consistent Calculation

     iteration #  1     ecut=    35.00 Ry     beta= 0.70
     Davidson diagonalization with overlap
     ethr =  1.00E-02,  avg # of iterations =  5.4

     Threshold (ethr) on eigenvalues was too large:
     Diagonalizing with lowered threshold

     Davidson diagonalization with overlap
     ethr =  1.72E-04,  avg # of iterations =  3.2

     total cpu time spent up to now is        1.0 secs

     total energy              =     -12.42026890 Ry
     estimated scf accuracy    <       0.00500955 Ry

     iteration #  2     ecut=    35.00 Ry     beta= 0.70
     Davidson diagonalization with overlap
     ethr =  1.67E-04,  avg # of iterations =  1.1

     total cpu time spent up to now is        1.1 secs

     total energy              =     -12.42039356 Ry
     estimated scf accuracy    <       0.00023605 Ry

     iteration #  3     ecut=    35.00 Ry     beta= 0.70
     Davidson diagonalization with overlap
     ethr =  7.87E-06,  avg # of iterations =  3.5

     total cpu time spent up to now is        1.4 secs

     total energy              =     -12.42042743 Ry
     estimated scf accuracy    <       0.00000116 Ry

     iteration #  4     ecut=    35.00 Ry     beta= 0.70
     Davidson diagonalization with overlap
     ethr =  3.87E-08,  avg # of iterations =  3.0

     total cpu time spent up to now is        1.5 secs

     total energy              =     -12.42042883 Ry
     estimated scf accuracy    <       0.00000006 Ry

     iteration #  5     ecut=    35.00 Ry     beta= 0.70
     Davidson diagonalization with overlap
     ethr =  2.06E-09,  avg # of iterations =  1.3

     total cpu time spent up to now is        1.6 secs

     End of self-consistent calculation

          k = 0.0000 0.0000 0.0000 (   609 PWs)   bands (ev):

    -4.4973  12.4209  12.4209  12.4209  13.9224  13.9225

          k =-0.1000 0.1000-0.1000 (   624 PWs)   bands (ev):

    -4.3032  10.3912  11.9537  11.9537  14.2062  14.5975

          k =-0.2000 0.2000-0.2000 (   628 PWs)   bands (ev):

    -3.7229   7.5450  11.3647  11.3647  13.9421  15.0951

          k =-0.3000 0.3000-0.3000 (   619 PWs)   bands (ev):

    -2.7632   4.8621  11.0010  11.0010  13.6987  14.2448

          k =-0.4000 0.4000-0.4000 (   628 PWs)   bands (ev):

    -1.4476   2.4893  10.8555  10.8555  13.4488  13.4488

          k = 0.5000-0.5000 0.5000 (   628 PWs)   bands (ev):

    -0.1806   0.8672  10.8318  10.8318  13.1455  13.6251

          k = 0.0000 0.2000 0.0000 (   625 PWs)   bands (ev):

    -4.2385  11.0457  11.0457  11.6651  12.6865  15.6155

          k =-0.1000 0.3000-0.1000 (   631 PWs)   bands (ev):

    -3.7869   8.6183  10.3335  11.2246  12.9951  14.7604

          k =-0.2000 0.4000-0.2000 (   628 PWs)   bands (ev):

    -2.9531   5.8802   9.9239  10.5865  12.6573  15.0397

          k =-0.3000 0.5000-0.3000 (   630 PWs)   bands (ev):

    -1.7518   3.4001   9.8335   9.9489  12.1423  15.0045

          k = 0.6000-0.4000 0.6000 (   629 PWs)   bands (ev):

    -0.2892   1.3485   9.3547  10.0529  12.1859  14.2616

          k = 0.5000-0.3000 0.5000 (   633 PWs)   bands (ev):

    -0.7788   1.9564   8.9517  10.5460  12.7174  13.8908

          k = 0.4000-0.2000 0.4000 (   628 PWs)   bands (ev):

    -2.1916   4.1922   8.8344  11.2293  13.6340  13.9732

          k = 0.3000-0.1000 0.3000 (   630 PWs)   bands (ev):

    -3.2732   6.7746   9.0377  11.9534  14.5119  14.6960

          k = 0.2000 0.0000 0.2000 (   626 PWs)   bands (ev):

    -3.9804   9.5446   9.5912  12.4372  14.4233  14.6569

          k = 0.0000 0.4000 0.0000 (   641 PWs)   bands (ev):

    -3.4645   9.5095   9.5095   9.9566  11.0433  12.8316

          k =-0.1000 0.5000-0.1000 (   626 PWs)   bands (ev):

    -2.7590   7.1835   8.9970   9.1360  11.0933  12.6239

          k =-0.2000 0.6000-0.2000 (   623 PWs)   bands (ev):

    -1.6802   4.6545   8.0672   8.8166  10.7991  14.4223

          k = 0.7000-0.3000 0.7000 (   632 PWs)   bands (ev):

    -0.2705   2.4382   7.1646   8.9701  10.8892  16.3079

          k = 0.6000-0.2000 0.6000 (   643 PWs)   bands (ev):

     0.2139   1.8400   6.5527   9.4492  11.3932  15.7798

          k = 0.5000-0.1000 0.5000 (   634 PWs)   bands (ev):

    -1.2458   3.8855   6.2764  10.2271  12.2750  15.5575

          k = 0.4000 0.0000 0.4000 (   630 PWs)   bands (ev):

    -2.4427   6.3122   6.3849  11.2141  13.4821  15.6080

          k = 0.0000 0.6000 0.0000 (   636 PWs)   bands (ev):

    -2.1825   7.4006   8.3744   8.3744   9.7954  10.7541

          k =-0.1000 0.7000-0.1000 (   638 PWs)   bands (ev):

    -1.2305   5.8043   6.6534   8.0855   9.8639  11.5545

          k = 0.8000-0.2000 0.8000 (   644 PWs)   bands (ev):

     0.0744   3.8301   5.2326   8.1365   9.9207  13.7905

          k = 0.7000-0.1000 0.7000 (   647 PWs)   bands (ev):

     1.3240   2.3040   4.3951   8.5249  10.3411  16.2991

          k = 0.6000 0.0000 0.6000 (   648 PWs)   bands (ev):

     0.0497   3.8784   4.0227   9.2374  11.1353  17.4136

          k = 0.0000 0.8000 0.0000 (   628 PWs)   bands (ev):

    -0.4068   4.4993   7.6853   7.6853   9.0339   9.7932

          k = 0.9000-0.1000 0.9000 (   644 PWs)   bands (ev):

     0.7769   3.2243   5.9175   7.6256   9.3103  11.0536

          k = 0.8000 0.0000 0.8000 (   640 PWs)   bands (ev):

     2.0887   2.4027   3.9759   7.9079   9.6467  13.5711

          k = 0.0000-1.0000 0.0000 (   636 PWs)   bands (ev):

     1.7695   1.9092   7.4543   7.4543   8.7785   9.5015

          k =-0.2000 0.4000 0.0000 (   634 PWs)   bands (ev):

    -3.2083   7.9645   7.9703  11.0029  13.0253  13.7625

          k =-0.3000 0.5000-0.1000 (   632 PWs)   bands (ev):

    -2.2515   5.3306   7.6447   9.9727  12.9492  14.6633

          k = 0.6000-0.4000 0.8000 (   639 PWs)   bands (ev):

    -0.9396   2.9753   7.6294   9.0428  12.8649  14.1896

          k = 0.5000-0.3000 0.7000 (   640 PWs)   bands (ev):

     0.3283   1.3557   7.7395   8.6058  12.9435  13.7896

          k =-0.2000 0.6000 0.0000 (   638 PWs)   bands (ev):

    -1.9302   6.6347   6.7765   8.2158  11.8551  12.2718

          k = 0.7000-0.3000 0.9000 (   646 PWs)   bands (ev):

    -0.7363   4.3268   6.3592   7.2777  11.9638  14.1356

          k = 0.6000-0.2000 0.8000 (   644 PWs)   bands (ev):

     0.7202   2.3115   5.7710   7.2581  12.2284  15.5267

          k = 0.5000-0.1000 0.7000 (   643 PWs)   bands (ev):

     0.2242   2.9292   5.2954   7.8342  12.8164  15.2114

          k = 0.4000 0.0000 0.6000 (   640 PWs)   bands (ev):

    -1.1784   5.0995   5.1741   8.7856  13.6151  14.8961

          k = 0.8000-0.2000 1.0000 (   642 PWs)   bands (ev):

    -0.1623   4.6269   6.0530   6.4881  11.1356  11.5058

          k = 0.7000-0.1000 0.9000 (   644 PWs)   bands (ev):

     1.2318   3.4120   4.3184   6.4326  11.4816  13.7277

          k = 0.6000 0.0000 0.8000 (   647 PWs)   bands (ev):

     1.6281   3.1415   3.4277   6.9472  12.0015  16.2444

          k =-0.2000-1.0000 0.0000 (   640 PWs)   bands (ev):

     1.9740   2.1560   5.8110   6.1446  10.8937  11.2583

          k = 0.6000-0.2000 1.0000 (   647 PWs)   bands (ev):

     0.5561   4.2843   4.3667   5.9740  14.0264  14.2157

          k = 0.5000-0.1000 0.9000 (   640 PWs)   bands (ev):

     1.8103   2.7706   4.4491   5.4507  14.1527  15.1274

          k =-0.4000-1.0000 0.0000 (   646 PWs)   bands (ev):

     2.4555   2.8954   4.1218   4.7810  13.9550  13.9851

     the Fermi energy is     3.4971 ev

!    total energy              =     -12.42042883 Ry
     estimated scf accuracy    <          1.9E-09 Ry
     smearing contrib. (-TS)   =      -0.00003261 Ry
     internal energy E=F+TS    =     -12.42039622 Ry

     The total energy is F=E-TS. E is the sum of the following terms:
     one-electron contribution =       1.95865905 Ry
     hartree contribution      =       0.02548072 Ry
     xc contribution           =      -9.81967392 Ry
     ewald contribution        =      -4.58486207 Ry

     convergence has been achieved in   5 iterations

     Forces acting on atoms (cartesian axes, Ry/au):

     atom    1 type  1   force =     0.00000000    0.00000000    0.00000000

     Total force =     0.000000     Total SCF correction =     0.000000


     Computing stress (Cartesian axis) and pressure

          total   stress  (Ry/bohr**3)                   (kbar)     P=     -114.04
  -0.00077521   0.00000000  -0.00000000         -114.04        0.00       -0.00
   0.00000000  -0.00077521   0.00000000            0.00     -114.04        0.00
  -0.00000000   0.00000000  -0.00077521           -0.00        0.00     -114.04


     Writing all to output data dir /Users/zhy/Aluminum-from-First-Principles/convergence-runs/smearing/ecut-035.0-ry_k-10x10x10_degauss-0.010-ry/qe-out/aluminum_ecut-035p0-ry_k-10x10x10_degauss-0p010-ry.save/ :
     XML data file, charge density, pseudopotentials, collected wavefunctions

     init_run     :      0.33s CPU      0.60s WALL (       1 calls)
     electrons    :      0.62s CPU      0.99s WALL (       1 calls)
     forces       :      0.01s CPU      0.01s WALL (       1 calls)
     stress       :      0.03s CPU      0.03s WALL (       1 calls)

     Called by init_run:
     wfcinit      :      0.03s CPU      0.03s WALL (       1 calls)
     potinit      :      0.11s CPU      0.16s WALL (       1 calls)
     hinit0       :      0.18s CPU      0.39s WALL (       1 calls)

     Called by electrons:
     c_bands      :      0.49s CPU      0.76s WALL (       6 calls)
     sum_band     :      0.09s CPU      0.18s WALL (       6 calls)
     v_of_rho     :      0.03s CPU      0.04s WALL (       6 calls)
     newd         :      0.01s CPU      0.01s WALL (       6 calls)
     mix_rho      :      0.00s CPU      0.00s WALL (       6 calls)

     Called by c_bands:
     init_us_2    :      0.01s CPU      0.01s WALL (     705 calls)
     cegterg      :      0.48s CPU      0.75s WALL (     282 calls)

     Called by *egterg:
     cdiaghg      :      0.03s CPU      0.03s WALL (    1058 calls)
     h_psi        :      0.43s CPU      0.66s WALL (    1152 calls)
     s_psi        :      0.00s CPU      0.00s WALL (    1152 calls)
     g_psi        :      0.00s CPU      0.00s WALL (     823 calls)

     Called by h_psi:
     h_psi:calbec :      0.01s CPU      0.05s WALL (    1152 calls)
     vloc_psi     :      0.41s CPU      0.60s WALL (    1152 calls)
     add_vuspsi   :      0.00s CPU      0.00s WALL (    1152 calls)

     General routines
     calbec       :      0.02s CPU      0.06s WALL (    2233 calls)
     fft          :      0.17s CPU      0.37s WALL (     102 calls)
     ffts         :      0.10s CPU      0.14s WALL (      12 calls)
     fftw         :      0.44s CPU      0.64s WALL (   11200 calls)
     interpolate  :      0.10s CPU      0.15s WALL (       6 calls)

     Parallel routines

     PWSCF        :      1.00s CPU      1.65s WALL


   This run was terminated on:   1:28: 7  23Sep2026            

=------------------------------------------------------------------------------=
   JOB DONE.
=------------------------------------------------------------------------------=
Note: The following floating-point exceptions are signalling: IEEE_INVALID_FLAG IEEE_DIVIDE_BY_ZERO IEEE_UNDERFLOW_FLAG
Note: The following floating-point exceptions are signalling: IEEE_UNDERFLOW_FLAG
