
     Program PWSCF v.7.6 starts on 23Sep2026 at  1:27:58 

     This program is part of the open-source Quantum ESPRESSO suite
     for quantum simulation of materials; please cite
         "P. Giannozzi et al., J. Phys.:Condens. Matter 21 395502 (2009);
         "P. Giannozzi et al., J. Phys.:Condens. Matter 29 465901 (2017);
         "P. Giannozzi et al., J. Chem. Phys. 152 154105 (2020);
          URL http://www.quantum-espresso.org", 
     in publications or presentations arising from this work. More details at
     http://www.quantum-espresso.org/quote

     Parallel version (MPI), running on     2 processors

     MPI processes distributed on     1 nodes
     0 MiB available memory on the printing compute node when the environment starts

     Reading input from Al.scf.inp

     Current dimensions of program PWSCF are:
     Max number of different atomic species (ntypx) = 10
     Max number of k-points (npk) =  40000
     Max angular momentum in pseudopotentials (lmaxx) =  4

     R & G space division:  proc/nbgrp/npool/nimage =       2
     Subspace diagonalization in iterative solution of the eigenvalue problem:
     a serial algorithm will be used


     Parallelization info
     --------------------
     sticks:   dense  smooth     PW     G-vecs:    dense   smooth      PW
     Min         384     189     60                 7164     2513     469
     Max         385     190     61                 7167     2516     472
     Sum         769     379    121                14331     5029     941

     Using Slab Decomposition



     bravais-lattice index     =            2
     lattice parameter (alat)  =       9.0000  a.u.
     unit-cell volume          =     182.2500 (a.u.)^3
     number of atoms/cell      =            1
     number of atomic types    =            1
     number of electrons       =         3.00
     number of Kohn-Sham states=            6
     kinetic-energy cutoff     =      35.0000  Ry
     charge density cutoff     =     280.0000  Ry
     scf convergence threshold =      1.0E-08
     mixing beta               =       0.7000
     number of iterations used =            8  plain     mixing
     Exchange-correlation= SLA  PW   PBE  PBE
                           (   1   4   3   4   0   0   0)

     celldm(1)=   9.000000  celldm(2)=   0.000000  celldm(3)=   0.000000
     celldm(4)=   0.000000  celldm(5)=   0.000000  celldm(6)=   0.000000

     crystal axes: (cart. coord. in units of alat)
               a(1) = (  -0.500000   0.000000   0.500000 )  
               a(2) = (   0.000000   0.500000   0.500000 )  
               a(3) = (  -0.500000   0.500000   0.000000 )  

     reciprocal axes: (cart. coord. in units 2 pi/alat)
               b(1) = ( -1.000000 -1.000000  1.000000 )  
               b(2) = (  1.000000  1.000000  1.000000 )  
               b(3) = ( -1.000000  1.000000 -1.000000 )  


     PseudoPot. # 1 for Al read from file:
     /Users/zhy/Aluminum-from-First-Principles/Al.pbe-n-van.UPF
     MD5 check sum: cbc97ad259b400557db688b98a6ada97
     Pseudo is Ultrasoft + core correction, Zval =  3.0
     Generated by new atomic code, or converted to UPF format
     Using radial grid of  893 points,  2 beta functions with: 
                l(1) =   0
                l(2) =   1
     Q(r) pseudized with  8 coefficients,  rinner =    0.900   0.900   0.900


     atomic species   valence    mass     pseudopotential
     Al                3.00    26.98200     Al( 1.00)

     48 Sym. Ops., with inversion, found



   Cartesian axes

     site n.     atom                  positions (alat units)
         1        Al     tau(   1) = (   0.0000000   0.0000000   0.0000000  )

     number of k points=    72  Methfessel-Paxton smearing, width (Ry)=  0.0200
                       cart. coord. in units 2pi/alat
        k(    1) = (   0.0000000   0.0000000   0.0000000), wk =   0.0011574
        k(    2) = (  -0.0833333   0.0833333  -0.0833333), wk =   0.0092593
        k(    3) = (  -0.1666667   0.1666667  -0.1666667), wk =   0.0092593
        k(    4) = (  -0.2500000   0.2500000  -0.2500000), wk =   0.0092593
        k(    5) = (  -0.3333333   0.3333333  -0.3333333), wk =   0.0092593
        k(    6) = (  -0.4166667   0.4166667  -0.4166667), wk =   0.0092593
        k(    7) = (   0.5000000  -0.5000000   0.5000000), wk =   0.0046296
        k(    8) = (   0.0000000   0.1666667   0.0000000), wk =   0.0069444
        k(    9) = (  -0.0833333   0.2500000  -0.0833333), wk =   0.0277778
        k(   10) = (  -0.1666667   0.3333333  -0.1666667), wk =   0.0277778
        k(   11) = (  -0.2500000   0.4166667  -0.2500000), wk =   0.0277778
        k(   12) = (  -0.3333333   0.5000000  -0.3333333), wk =   0.0277778
        k(   13) = (   0.5833333  -0.4166667   0.5833333), wk =   0.0277778
        k(   14) = (   0.5000000  -0.3333333   0.5000000), wk =   0.0277778
        k(   15) = (   0.4166667  -0.2500000   0.4166667), wk =   0.0277778
        k(   16) = (   0.3333333  -0.1666667   0.3333333), wk =   0.0277778
        k(   17) = (   0.2500000  -0.0833333   0.2500000), wk =   0.0277778
        k(   18) = (   0.1666667  -0.0000000   0.1666667), wk =   0.0138889
        k(   19) = (   0.0000000   0.3333333   0.0000000), wk =   0.0069444
        k(   20) = (  -0.0833333   0.4166667  -0.0833333), wk =   0.0277778
        k(   21) = (  -0.1666667   0.5000000  -0.1666667), wk =   0.0277778
        k(   22) = (  -0.2500000   0.5833333  -0.2500000), wk =   0.0277778
        k(   23) = (   0.6666667  -0.3333333   0.6666667), wk =   0.0277778
        k(   24) = (   0.5833333  -0.2500000   0.5833333), wk =   0.0277778
        k(   25) = (   0.5000000  -0.1666667   0.5000000), wk =   0.0277778
        k(   26) = (   0.4166667  -0.0833333   0.4166667), wk =   0.0277778
        k(   27) = (   0.3333333   0.0000000   0.3333333), wk =   0.0138889
        k(   28) = (   0.0000000   0.5000000   0.0000000), wk =   0.0069444
        k(   29) = (  -0.0833333   0.5833333  -0.0833333), wk =   0.0277778
        k(   30) = (  -0.1666667   0.6666667  -0.1666667), wk =   0.0277778
        k(   31) = (   0.7500000  -0.2500000   0.7500000), wk =   0.0277778
        k(   32) = (   0.6666667  -0.1666667   0.6666667), wk =   0.0277778
        k(   33) = (   0.5833333  -0.0833333   0.5833333), wk =   0.0277778
        k(   34) = (   0.5000000   0.0000000   0.5000000), wk =   0.0138889
        k(   35) = (   0.0000000   0.6666667   0.0000000), wk =   0.0069444
        k(   36) = (  -0.0833333   0.7500000  -0.0833333), wk =   0.0277778
        k(   37) = (   0.8333333  -0.1666667   0.8333333), wk =   0.0277778
        k(   38) = (   0.7500000  -0.0833333   0.7500000), wk =   0.0277778
        k(   39) = (   0.6666667   0.0000000   0.6666667), wk =   0.0138889
        k(   40) = (   0.0000000   0.8333333   0.0000000), wk =   0.0069444
        k(   41) = (   0.9166667  -0.0833333   0.9166667), wk =   0.0277778
        k(   42) = (   0.8333333   0.0000000   0.8333333), wk =   0.0138889
        k(   43) = (   0.0000000  -1.0000000   0.0000000), wk =   0.0034722
        k(   44) = (  -0.1666667   0.3333333   0.0000000), wk =   0.0277778
        k(   45) = (  -0.2500000   0.4166667  -0.0833333), wk =   0.0555556
        k(   46) = (  -0.3333333   0.5000000  -0.1666667), wk =   0.0555556
        k(   47) = (   0.5833333  -0.4166667   0.7500000), wk =   0.0555556
        k(   48) = (   0.5000000  -0.3333333   0.6666667), wk =   0.0277778
        k(   49) = (  -0.1666667   0.5000000   0.0000000), wk =   0.0277778
        k(   50) = (  -0.2500000   0.5833333  -0.0833333), wk =   0.0555556
        k(   51) = (   0.6666667  -0.3333333   0.8333333), wk =   0.0555556
        k(   52) = (   0.5833333  -0.2500000   0.7500000), wk =   0.0555556
        k(   53) = (   0.5000000  -0.1666667   0.6666667), wk =   0.0555556
        k(   54) = (   0.4166667  -0.0833333   0.5833333), wk =   0.0555556
        k(   55) = (   0.3333333   0.0000000   0.5000000), wk =   0.0277778
        k(   56) = (  -0.1666667   0.6666667  -0.0000000), wk =   0.0277778
        k(   57) = (   0.7500000  -0.2500000   0.9166667), wk =   0.0555556
        k(   58) = (   0.6666667  -0.1666667   0.8333333), wk =   0.0555556
        k(   59) = (   0.5833333  -0.0833333   0.7500000), wk =   0.0555556
        k(   60) = (   0.5000000   0.0000000   0.6666667), wk =   0.0277778
        k(   61) = (   0.8333333  -0.1666667   1.0000000), wk =   0.0277778
        k(   62) = (   0.7500000  -0.0833333   0.9166667), wk =   0.0555556
        k(   63) = (   0.6666667   0.0000000   0.8333333), wk =   0.0277778
        k(   64) = (  -0.1666667  -1.0000000   0.0000000), wk =   0.0138889
        k(   65) = (   0.6666667  -0.3333333   1.0000000), wk =   0.0277778
        k(   66) = (   0.5833333  -0.2500000   0.9166667), wk =   0.0555556
        k(   67) = (   0.5000000  -0.1666667   0.8333333), wk =   0.0277778
        k(   68) = (   0.6666667  -0.1666667   1.0000000), wk =   0.0277778
        k(   69) = (   0.5833333  -0.0833333   0.9166667), wk =   0.0555556
        k(   70) = (   0.5000000   0.0000000   0.8333333), wk =   0.0277778
        k(   71) = (  -0.3333333  -1.0000000   0.0000000), wk =   0.0138889
        k(   72) = (  -0.5000000  -1.0000000   0.0000000), wk =   0.0069444

     Dense  grid:    14331 G-vectors     FFT dimensions: (  36,  36,  36)

     Smooth grid:     5029 G-vectors     FFT dimensions: (  24,  24,  24)

     Estimated max dynamical RAM per process >       9.43 MB

     Estimated total dynamical RAM >      18.86 MB

     Initial potential from superposition of free atoms

     starting charge       2.9975, renormalised to       3.0000
     Starting wfcs are    4 randomized atomic wfcs +    2 random wfcs

     total cpu time spent up to now is        0.3 secs

     Self-consistent Calculation

     iteration #  1     ecut=    35.00 Ry     beta= 0.70
     Davidson diagonalization with overlap
     ethr =  1.00E-02,  avg # of iterations =  5.3

     Threshold (ethr) on eigenvalues was too large:
     Diagonalizing with lowered threshold

     Davidson diagonalization with overlap
     ethr =  1.79E-04,  avg # of iterations =  2.9

     total cpu time spent up to now is        0.8 secs

     total energy              =     -12.41939855 Ry
     estimated scf accuracy    <       0.00521435 Ry

     iteration #  2     ecut=    35.00 Ry     beta= 0.70
     Davidson diagonalization with overlap
     ethr =  1.74E-04,  avg # of iterations =  1.0

     total cpu time spent up to now is        0.9 secs

     total energy              =     -12.41952237 Ry
     estimated scf accuracy    <       0.00024516 Ry

     iteration #  3     ecut=    35.00 Ry     beta= 0.70
     Davidson diagonalization with overlap
     c_bands:  1 eigenvalues not converged
     ethr =  8.17E-06,  avg # of iterations =  4.1

     total cpu time spent up to now is        1.1 secs

     total energy              =     -12.41955629 Ry
     estimated scf accuracy    <       0.00000110 Ry

     iteration #  4     ecut=    35.00 Ry     beta= 0.70
     Davidson diagonalization with overlap
     ethr =  3.67E-08,  avg # of iterations =  3.1

     total cpu time spent up to now is        1.2 secs

     total energy              =     -12.41955768 Ry
     estimated scf accuracy    <       0.00000007 Ry

     iteration #  5     ecut=    35.00 Ry     beta= 0.70
     Davidson diagonalization with overlap
     ethr =  2.26E-09,  avg # of iterations =  1.4

     total cpu time spent up to now is        1.4 secs

     End of self-consistent calculation

          k = 0.0000 0.0000 0.0000 (   609 PWs)   bands (ev):

    -4.4989  12.4177  12.4177  12.4177  13.9208  13.9208

          k =-0.0833 0.0833-0.0833 (   624 PWs)   bands (ev):

    -4.3641  10.8496  12.0598  12.0598  14.2085  14.4302

          k =-0.1667 0.1667-0.1667 (   637 PWs)   bands (ev):

    -3.9606   8.4860  11.5370  11.5370  14.0445  15.1135

          k =-0.2500 0.2500-0.2500 (   631 PWs)   bands (ev):

    -3.2913   6.1690  11.1492  11.1493  13.7980  14.7249

          k =-0.3333 0.3333-0.3333 (   613 PWs)   bands (ev):

    -2.3635   4.0302  10.9291  10.9292  13.6525  13.9383

          k =-0.4167 0.4167-0.4167 (   628 PWs)   bands (ev):

    -1.2016   2.1316  10.8436  10.8436  13.3571  13.3571

          k = 0.5000-0.5000 0.5000 (   628 PWs)   bands (ev):

    -0.1829   0.8661  10.8289  10.8289  13.1443  13.6217

          k = 0.0000 0.1667 0.0000 (   625 PWs)   bands (ev):

    -4.3192  11.3265  11.3265  11.8722  12.9727  15.2337

          k =-0.0833 0.2500-0.0833 (   632 PWs)   bands (ev):

    -4.0052   9.3605  10.6942  11.5731  13.1695  15.4123

          k =-0.1667 0.3333-0.1667 (   626 PWs)   bands (ev):

    -3.4244   7.0279  10.2579  11.0699  13.2995  14.9388

          k =-0.2500 0.4167-0.2500 (   630 PWs)   bands (ev):

    -2.5820   4.8287  10.0377  10.5988  12.7127  14.8558

          k =-0.3333 0.5000-0.3333 (   632 PWs)   bands (ev):

    -1.4930   2.8451  10.0348  10.1360  12.3614  14.5384

          k = 0.5833-0.4167 0.5833 (   633 PWs)   bands (ev):

    -0.2709   1.2130   9.7042  10.2361  12.4152  13.9708

          k = 0.5000-0.3333 0.5000 (   629 PWs)   bands (ev):

    -0.6644   1.6888   9.3892  10.6122  12.8202  13.6806

          k = 0.4167-0.2500 0.4167 (   627 PWs)   bands (ev):

    -1.8816   3.4793   9.2548  11.1057  13.5065  13.7224

          k = 0.3333-0.1667 0.3333 (   627 PWs)   bands (ev):

    -2.8915   5.5419   9.3324  11.6392  14.1278  14.3437

          k = 0.2500-0.0833 0.2500 (   631 PWs)   bands (ev):

    -3.6475   7.8002   9.6323  12.1477  14.6095  14.6217

          k = 0.1667-0.0000 0.1667 (   630 PWs)   bands (ev):

    -4.1397  10.1148  10.1866  12.4554  14.2687  14.4971

          k = 0.0000 0.3333 0.0000 (   637 PWs)   bands (ev):

    -3.7810   9.9794   9.9794  10.6069  11.5560  13.8409

          k =-0.0833 0.4167-0.0833 (   627 PWs)   bands (ev):

    -3.2896   8.0683   9.4707  10.0896  11.7070  13.0817

          k =-0.1667 0.5000-0.1667 (   630 PWs)   bands (ev):

    -2.5350   5.8549   9.1870   9.3267  11.4046  14.1007

          k =-0.2500 0.5833-0.2500 (   632 PWs)   bands (ev):

    -1.5269   3.8087   8.5506   9.1336  11.1811  15.5523

          k = 0.6667-0.3333 0.6667 (   640 PWs)   bands (ev):

    -0.3114   2.0261   7.8855   9.3088  11.2895  15.5961

          k = 0.5833-0.2500 0.5833 (   641 PWs)   bands (ev):

     0.0800   1.5544   7.4069   9.7045  11.6980  15.1418

          k = 0.5000-0.1667 0.5000 (   631 PWs)   bands (ev):

    -1.1413   3.1844   7.1491  10.3021  12.3760  14.9377

          k = 0.4167-0.0833 0.4167 (   635 PWs)   bands (ev):

    -2.2279   5.1596   7.1261  11.0557  13.2922  15.0085

          k = 0.3333 0.0000 0.3333 (   630 PWs)   bands (ev):

    -3.0682   7.3219   7.3645  11.8326  14.3781  15.3081

          k = 0.0000 0.5000 0.0000 (   632 PWs)   bands (ev):

    -2.8880   8.7769   8.8856   8.8856  10.3600  11.6088

          k =-0.0833 0.5833-0.0833 (   635 PWs)   bands (ev):

    -2.2223   6.9789   8.0047   8.5273  10.4057  11.7425

          k =-0.1667 0.6667-0.1667 (   634 PWs)   bands (ev):

    -1.2998   4.9708   6.9694   8.4029  10.2700  13.3190

          k = 0.7500-0.2500 0.7500 (   643 PWs)   bands (ev):

    -0.1439   3.1216   6.1294   8.5128  10.3577  15.2109

          k = 0.6667-0.1667 0.6667 (   641 PWs)   bands (ev):

     0.8705   1.8764   5.5187   8.8544  10.7187  17.0025

          k = 0.5833-0.0833 0.5833 (   639 PWs)   bands (ev):

    -0.1550   3.1496   5.1508   9.4186  11.3437  16.6489

          k = 0.5000 0.0000 0.5000 (   636 PWs)   bands (ev):

    -1.3078   4.9772   5.0808  10.1800  12.2150  16.3326

          k = 0.0000 0.6667 0.0000 (   640 PWs)   bands (ev):

    -1.6463   6.4265   8.0921   8.0921   9.4848  10.3414

          k =-0.0833 0.7500-0.0833 (   640 PWs)   bands (ev):

    -0.8118   5.2286   6.6274   7.8912   9.6120  10.9993

          k = 0.8333-0.1667 0.8333 (   640 PWs)   bands (ev):

     0.2668   4.0498   4.9691   7.9270   9.6781  12.8412

          k = 0.7500-0.0833 0.7500 (   644 PWs)   bands (ev):

     1.4749   2.7622   3.9481   8.1988   9.9765  14.9577

          k = 0.6667 0.0000 0.6667 (   650 PWs)   bands (ev):

     1.0297   3.2767   3.4962   8.7006  10.5341  17.1269

          k = 0.0000 0.8333 0.0000 (   636 PWs)   bands (ev):

    -0.0662   4.0296   7.6127   7.6127   8.9548   9.7014

          k = 0.9167-0.0833 0.9167 (   640 PWs)   bands (ev):

     0.9269   2.9749   6.2289   7.5713   9.2339  10.6442

          k = 0.8333 0.0000 0.8333 (   640 PWs)   bands (ev):

     2.0215   2.2506   4.5472   7.7677   9.4881  12.6810

          k = 0.0000-1.0000 0.0000 (   636 PWs)   bands (ev):

     1.7671   1.9077   7.4523   7.4523   8.7773   9.4999

          k =-0.1667 0.3333 0.0000 (   630 PWs)   bands (ev):

    -3.6025   8.7458   8.7732  11.5754  13.0620  14.3370

          k =-0.2500 0.4167-0.0833 (   632 PWs)   bands (ev):

    -2.9346   6.4851   8.3788  10.9272  13.1121  14.5717

          k =-0.3333 0.5000-0.1667 (   631 PWs)   bands (ev):

    -2.0087   4.3617   8.2223  10.1317  12.8361  14.5620

          k = 0.5833-0.4167 0.7500 (   637 PWs)   bands (ev):

    -0.8489   2.4708   8.2625   9.4658  12.7954  13.9390

          k = 0.5000-0.3333 0.6667 (   636 PWs)   bands (ev):

     0.1710   1.2058   8.3523   9.1603  12.8561  13.6403

          k =-0.1667 0.5000 0.0000 (   630 PWs)   bands (ev):

    -2.7111   7.5604   7.6276   9.5357  11.9341  12.5578

          k =-0.2500 0.5833-0.0833 (   632 PWs)   bands (ev):

    -1.8722   5.4631   7.3152   8.6023  11.9590  13.7305

          k = 0.6667-0.3333 0.8333 (   638 PWs)   bands (ev):

    -0.7874   3.5082   7.0891   7.9694  11.9623  15.1928

          k = 0.5833-0.2500 0.7500 (   643 PWs)   bands (ev):

     0.4325   1.8878   6.6749   7.9787  12.2077  15.0286

          k = 0.5000-0.1667 0.6667 (   645 PWs)   bands (ev):

     0.0353   2.3680   6.3001   8.4228  12.6806  14.6876

          k = 0.4167-0.0833 0.5833 (   638 PWs)   bands (ev):

    -1.1773   4.1461   6.1253   9.1363  13.3256  14.5791

          k = 0.3333 0.0000 0.5000 (   637 PWs)   bands (ev):

    -2.1823   6.1548   6.2125  10.0445  13.9409  14.3415

          k =-0.1667 0.6667-0.0000 (   641 PWs)   bands (ev):

    -1.4723   6.2590   6.7974   7.4704  11.1028  11.5605

          k = 0.7500-0.2500 0.9167 (   646 PWs)   bands (ev):

    -0.4707   4.6742   5.8045   7.0237  11.2571  13.1137

          k = 0.6667-0.1667 0.8333 (   642 PWs)   bands (ev):

     0.7377   2.9892   5.0242   7.1450  11.4563  15.0911

          k = 0.5833-0.0833 0.7500 (   645 PWs)   bands (ev):

     1.1091   2.5626   4.4822   7.5659  11.8925  16.4237

          k = 0.5000 0.0000 0.6667 (   643 PWs)   bands (ev):

    -0.1029   4.1286   4.2437   8.2406  12.5512  16.3084

          k = 0.8333-0.1667 1.0000 (   644 PWs)   bands (ev):

     0.1023   4.1472   6.2962   6.6312  10.5979  11.0171

          k = 0.7500-0.0833 0.9167 (   643 PWs)   bands (ev):

     1.2454   3.2215   4.6975   6.5922  10.9131  12.7983

          k = 0.6667 0.0000 0.8333 (   647 PWs)   bands (ev):

     2.0888   2.7641   3.4531   6.9506  11.2880  14.9808

          k =-0.1667-1.0000 0.0000 (   648 PWs)   bands (ev):

     1.9105   2.0791   6.1287   6.4215  10.4285  10.8401

          k = 0.6667-0.3333 1.0000 (   641 PWs)   bands (ev):

    -0.9536   5.3005   5.3122   7.5558  13.5500  13.5747

          k = 0.5833-0.2500 0.9167 (   645 PWs)   bands (ev):

     0.1974   3.4625   5.3532   6.7598  13.5809  14.7281

          k = 0.5000-0.1667 0.8333 (   648 PWs)   bands (ev):

     1.2161   2.2082   5.4465   6.4152  13.6426  14.6079

          k = 0.6667-0.1667 1.0000 (   646 PWs)   bands (ev):

     0.5999   4.2733   4.8042   5.6294  13.0639  13.1918

          k = 0.5833-0.0833 0.9167 (   642 PWs)   bands (ev):

     1.7997   3.1047   4.1283   5.4615  13.3764  15.1188

          k = 0.5000 0.0000 0.8333 (   642 PWs)   bands (ev):

     1.3789   3.6176   3.7194   5.9356  13.7937  15.9594

          k =-0.3333-1.0000 0.0000 (   642 PWs)   bands (ev):

     2.2886   2.5930   4.6346   5.1452  12.9005  13.0517

          k =-0.5000-1.0000 0.0000 (   648 PWs)   bands (ev):

     2.5770   3.4468   3.4468   4.5411  14.7989  15.6911

     the Fermi energy is     3.5447 ev

!    total energy              =     -12.41955768 Ry
     estimated scf accuracy    <          1.8E-09 Ry
     smearing contrib. (-TS)   =      -0.00014775 Ry
     internal energy E=F+TS    =     -12.41940993 Ry

     The total energy is F=E-TS. E is the sum of the following terms:
     one-electron contribution =       1.95927758 Ry
     hartree contribution      =       0.02512537 Ry
     xc contribution           =      -9.81895080 Ry
     ewald contribution        =      -4.58486207 Ry

     convergence has been achieved in   5 iterations

     Forces acting on atoms (cartesian axes, Ry/au):

     atom    1 type  1   force =     0.00000000    0.00000000    0.00000000

     Total force =     0.000000     Total SCF correction =     0.000000


     Computing stress (Cartesian axis) and pressure

          total   stress  (Ry/bohr**3)                   (kbar)     P=     -116.51
  -0.00079205   0.00000000  -0.00000000         -116.51        0.00       -0.00
   0.00000000  -0.00079205  -0.00000000            0.00     -116.51       -0.00
  -0.00000000  -0.00000000  -0.00079205           -0.00       -0.00     -116.51


     Writing all to output data dir /Users/zhy/Aluminum-from-First-Principles/convergence-runs/smearing/ecut-035.0-ry_k-12x12x12_degauss-0.020-ry/qe-out/aluminum_ecut-035p0-ry_k-12x12x12_degauss-0p020-ry.save/ :
     XML data file, charge density, pseudopotentials, collected wavefunctions

     init_run     :      0.32s CPU      0.33s WALL (       1 calls)
     electrons    :      0.84s CPU      1.03s WALL (       1 calls)
     forces       :      0.01s CPU      0.01s WALL (       1 calls)
     stress       :      0.03s CPU      0.04s WALL (       1 calls)

     Called by init_run:
     wfcinit      :      0.04s CPU      0.04s WALL (       1 calls)
     potinit      :      0.10s CPU      0.10s WALL (       1 calls)
     hinit0       :      0.17s CPU      0.17s WALL (       1 calls)

     Called by electrons:
     c_bands      :      0.69s CPU      0.87s WALL (       6 calls)
     sum_band     :      0.12s CPU      0.13s WALL (       6 calls)
     v_of_rho     :      0.03s CPU      0.03s WALL (       6 calls)
     newd         :      0.01s CPU      0.01s WALL (       6 calls)
     mix_rho      :      0.00s CPU      0.00s WALL (       6 calls)

     Called by c_bands:
     init_us_2    :      0.02s CPU      0.02s WALL (    1080 calls)
     cegterg      :      0.67s CPU      0.85s WALL (     432 calls)

     Called by *egterg:
     cdiaghg      :      0.04s CPU      0.04s WALL (    1638 calls)
     h_psi        :      0.60s CPU      0.74s WALL (    1782 calls)
     s_psi        :      0.00s CPU      0.01s WALL (    1782 calls)
     g_psi        :      0.00s CPU      0.00s WALL (    1278 calls)

     Called by h_psi:
     h_psi:calbec :      0.01s CPU      0.01s WALL (    1782 calls)
     vloc_psi     :      0.59s CPU      0.72s WALL (    1782 calls)
     add_vuspsi   :      0.00s CPU      0.01s WALL (    1782 calls)

     General routines
     calbec       :      0.02s CPU      0.02s WALL (    3438 calls)
     fft          :      0.15s CPU      0.16s WALL (     102 calls)
     ffts         :      0.10s CPU      0.10s WALL (      12 calls)
     fftw         :      0.62s CPU      0.75s WALL (   17278 calls)
     interpolate  :      0.10s CPU      0.10s WALL (       6 calls)

     Parallel routines

     PWSCF        :      1.23s CPU      1.44s WALL


   This run was terminated on:   1:27:59  23Sep2026            

=------------------------------------------------------------------------------=
   JOB DONE.
=------------------------------------------------------------------------------=
Note: The following floating-point exceptions are signalling: IEEE_INVALID_FLAG IEEE_DIVIDE_BY_ZERO IEEE_UNDERFLOW_FLAG
Note: The following floating-point exceptions are signalling: IEEE_UNDERFLOW_FLAG
