
     Program PWSCF v.7.6 starts on 22Sep2026 at 23:45:20 

     This program is part of the open-source Quantum ESPRESSO suite
     for quantum simulation of materials; please cite
         "P. Giannozzi et al., J. Phys.:Condens. Matter 21 395502 (2009);
         "P. Giannozzi et al., J. Phys.:Condens. Matter 29 465901 (2017);
         "P. Giannozzi et al., J. Chem. Phys. 152 154105 (2020);
          URL http://www.quantum-espresso.org", 
     in publications or presentations arising from this work. More details at
     http://www.quantum-espresso.org/quote

     Parallel version (MPI), running on     2 processors

     MPI processes distributed on     1 nodes
     0 MiB available memory on the printing compute node when the environment starts

     Reading input from Al.scf.inp

     Current dimensions of program PWSCF are:
     Max number of different atomic species (ntypx) = 10
     Max number of k-points (npk) =  40000
     Max angular momentum in pseudopotentials (lmaxx) =  4

     R & G space division:  proc/nbgrp/npool/nimage =       2
     Subspace diagonalization in iterative solution of the eigenvalue problem:
     a serial algorithm will be used


     Parallelization info
     --------------------
     sticks:   dense  smooth     PW     G-vecs:    dense   smooth      PW
     Min         279     141     45                 4327     1559     304
     Max         280     142     46                 4330     1560     305
     Sum         559     283     91                 8657     3119     609

     Using Slab Decomposition



     bravais-lattice index     =            2
     lattice parameter (alat)  =       9.0000  a.u.
     unit-cell volume          =     182.2500 (a.u.)^3
     number of atoms/cell      =            1
     number of atomic types    =            1
     number of electrons       =         3.00
     number of Kohn-Sham states=            6
     kinetic-energy cutoff     =      25.0000  Ry
     charge density cutoff     =     200.0000  Ry
     scf convergence threshold =      1.0E-08
     mixing beta               =       0.7000
     number of iterations used =            8  plain     mixing
     Exchange-correlation= SLA  PW   PBE  PBE
                           (   1   4   3   4   0   0   0)

     celldm(1)=   9.000000  celldm(2)=   0.000000  celldm(3)=   0.000000
     celldm(4)=   0.000000  celldm(5)=   0.000000  celldm(6)=   0.000000

     crystal axes: (cart. coord. in units of alat)
               a(1) = (  -0.500000   0.000000   0.500000 )  
               a(2) = (   0.000000   0.500000   0.500000 )  
               a(3) = (  -0.500000   0.500000   0.000000 )  

     reciprocal axes: (cart. coord. in units 2 pi/alat)
               b(1) = ( -1.000000 -1.000000  1.000000 )  
               b(2) = (  1.000000  1.000000  1.000000 )  
               b(3) = ( -1.000000  1.000000 -1.000000 )  


     PseudoPot. # 1 for Al read from file:
     /Users/zhy/Aluminum-from-First-Principles/Al.pbe-n-van.UPF
     MD5 check sum: cbc97ad259b400557db688b98a6ada97
     Pseudo is Ultrasoft + core correction, Zval =  3.0
     Generated by new atomic code, or converted to UPF format
     Using radial grid of  893 points,  2 beta functions with: 
                l(1) =   0
                l(2) =   1
     Q(r) pseudized with  8 coefficients,  rinner =    0.900   0.900   0.900


     atomic species   valence    mass     pseudopotential
     Al                3.00    26.98200     Al( 1.00)

     48 Sym. Ops., with inversion, found



   Cartesian axes

     site n.     atom                  positions (alat units)
         1        Al     tau(   1) = (   0.0000000   0.0000000   0.0000000  )

     number of k points=    47  Methfessel-Paxton smearing, width (Ry)=  0.0500
                       cart. coord. in units 2pi/alat
        k(    1) = (   0.0000000   0.0000000   0.0000000), wk =   0.0020000
        k(    2) = (  -0.1000000   0.1000000  -0.1000000), wk =   0.0160000
        k(    3) = (  -0.2000000   0.2000000  -0.2000000), wk =   0.0160000
        k(    4) = (  -0.3000000   0.3000000  -0.3000000), wk =   0.0160000
        k(    5) = (  -0.4000000   0.4000000  -0.4000000), wk =   0.0160000
        k(    6) = (   0.5000000  -0.5000000   0.5000000), wk =   0.0080000
        k(    7) = (   0.0000000   0.2000000   0.0000000), wk =   0.0120000
        k(    8) = (  -0.1000000   0.3000000  -0.1000000), wk =   0.0480000
        k(    9) = (  -0.2000000   0.4000000  -0.2000000), wk =   0.0480000
        k(   10) = (  -0.3000000   0.5000000  -0.3000000), wk =   0.0480000
        k(   11) = (   0.6000000  -0.4000000   0.6000000), wk =   0.0480000
        k(   12) = (   0.5000000  -0.3000000   0.5000000), wk =   0.0480000
        k(   13) = (   0.4000000  -0.2000000   0.4000000), wk =   0.0480000
        k(   14) = (   0.3000000  -0.1000000   0.3000000), wk =   0.0480000
        k(   15) = (   0.2000000   0.0000000   0.2000000), wk =   0.0240000
        k(   16) = (   0.0000000   0.4000000   0.0000000), wk =   0.0120000
        k(   17) = (  -0.1000000   0.5000000  -0.1000000), wk =   0.0480000
        k(   18) = (  -0.2000000   0.6000000  -0.2000000), wk =   0.0480000
        k(   19) = (   0.7000000  -0.3000000   0.7000000), wk =   0.0480000
        k(   20) = (   0.6000000  -0.2000000   0.6000000), wk =   0.0480000
        k(   21) = (   0.5000000  -0.1000000   0.5000000), wk =   0.0480000
        k(   22) = (   0.4000000   0.0000000   0.4000000), wk =   0.0240000
        k(   23) = (   0.0000000   0.6000000   0.0000000), wk =   0.0120000
        k(   24) = (  -0.1000000   0.7000000  -0.1000000), wk =   0.0480000
        k(   25) = (   0.8000000  -0.2000000   0.8000000), wk =   0.0480000
        k(   26) = (   0.7000000  -0.1000000   0.7000000), wk =   0.0480000
        k(   27) = (   0.6000000   0.0000000   0.6000000), wk =   0.0240000
        k(   28) = (   0.0000000   0.8000000   0.0000000), wk =   0.0120000
        k(   29) = (   0.9000000  -0.1000000   0.9000000), wk =   0.0480000
        k(   30) = (   0.8000000   0.0000000   0.8000000), wk =   0.0240000
        k(   31) = (   0.0000000  -1.0000000   0.0000000), wk =   0.0060000
        k(   32) = (  -0.2000000   0.4000000   0.0000000), wk =   0.0480000
        k(   33) = (  -0.3000000   0.5000000  -0.1000000), wk =   0.0960000
        k(   34) = (   0.6000000  -0.4000000   0.8000000), wk =   0.0960000
        k(   35) = (   0.5000000  -0.3000000   0.7000000), wk =   0.0480000
        k(   36) = (  -0.2000000   0.6000000   0.0000000), wk =   0.0480000
        k(   37) = (   0.7000000  -0.3000000   0.9000000), wk =   0.0960000
        k(   38) = (   0.6000000  -0.2000000   0.8000000), wk =   0.0960000
        k(   39) = (   0.5000000  -0.1000000   0.7000000), wk =   0.0960000
        k(   40) = (   0.4000000   0.0000000   0.6000000), wk =   0.0480000
        k(   41) = (   0.8000000  -0.2000000   1.0000000), wk =   0.0480000
        k(   42) = (   0.7000000  -0.1000000   0.9000000), wk =   0.0960000
        k(   43) = (   0.6000000   0.0000000   0.8000000), wk =   0.0480000
        k(   44) = (  -0.2000000  -1.0000000   0.0000000), wk =   0.0240000
        k(   45) = (   0.6000000  -0.2000000   1.0000000), wk =   0.0480000
        k(   46) = (   0.5000000  -0.1000000   0.9000000), wk =   0.0480000
        k(   47) = (  -0.4000000  -1.0000000   0.0000000), wk =   0.0240000

     Dense  grid:     8657 G-vectors     FFT dimensions: (  30,  30,  30)

     Smooth grid:     3119 G-vectors     FFT dimensions: (  24,  24,  24)

     Estimated max dynamical RAM per process >       5.24 MB

     Estimated total dynamical RAM >      10.49 MB

     Initial potential from superposition of free atoms

     starting charge       2.9975, renormalised to       3.0000
     Starting wfcs are    4 randomized atomic wfcs +    2 random wfcs

     total cpu time spent up to now is        0.3 secs

     Self-consistent Calculation

     iteration #  1     ecut=    25.00 Ry     beta= 0.70
     Davidson diagonalization with overlap
     ethr =  1.00E-02,  avg # of iterations =  5.0

     Threshold (ethr) on eigenvalues was too large:
     Diagonalizing with lowered threshold

     Davidson diagonalization with overlap
     ethr =  1.81E-04,  avg # of iterations =  3.0

     total cpu time spent up to now is        0.4 secs

     total energy              =     -12.41795944 Ry
     estimated scf accuracy    <       0.00533444 Ry

     iteration #  2     ecut=    25.00 Ry     beta= 0.70
     Davidson diagonalization with overlap
     ethr =  1.78E-04,  avg # of iterations =  1.0

     total cpu time spent up to now is        0.5 secs

     total energy              =     -12.41807923 Ry
     estimated scf accuracy    <       0.00025005 Ry

     iteration #  3     ecut=    25.00 Ry     beta= 0.70
     Davidson diagonalization with overlap
     c_bands:  1 eigenvalues not converged
     ethr =  8.33E-06,  avg # of iterations =  3.4

     total cpu time spent up to now is        0.6 secs

     total energy              =     -12.41810900 Ry
     estimated scf accuracy    <       0.00000094 Ry

     iteration #  4     ecut=    25.00 Ry     beta= 0.70
     Davidson diagonalization with overlap
     ethr =  3.13E-08,  avg # of iterations =  3.2

     total cpu time spent up to now is        0.7 secs

     total energy              =     -12.41811012 Ry
     estimated scf accuracy    <       0.00000005 Ry

     iteration #  5     ecut=    25.00 Ry     beta= 0.70
     Davidson diagonalization with overlap
     ethr =  1.59E-09,  avg # of iterations =  1.5

     total cpu time spent up to now is        0.8 secs

     End of self-consistent calculation

          k = 0.0000 0.0000 0.0000 (   387 PWs)   bands (ev):

    -4.4978  12.4675  12.4675  12.4675  13.9449  13.9450

          k =-0.1000 0.1000-0.1000 (   375 PWs)   bands (ev):

    -4.3033  10.4204  11.9968  11.9968  14.2419  14.6311

          k =-0.2000 0.2000-0.2000 (   368 PWs)   bands (ev):

    -3.7225   7.5686  11.4070  11.4070  13.9863  15.1338

          k =-0.3000 0.3000-0.3000 (   380 PWs)   bands (ev):

    -2.7626   4.8756  11.0393  11.0393  13.7442  14.2707

          k =-0.4000 0.4000-0.4000 (   386 PWs)   bands (ev):

    -1.4456   2.4955  10.8922  10.8922  13.4697  13.4697

          k = 0.5000-0.5000 0.5000 (   392 PWs)   bands (ev):

    -0.1797   0.8734  10.8674  10.8674  13.1636  13.6758

          k = 0.0000 0.2000 0.0000 (   371 PWs)   bands (ev):

    -4.2385  11.0812  11.0812  11.7115  12.7062  15.6630

          k =-0.1000 0.3000-0.1000 (   372 PWs)   bands (ev):

    -3.7865   8.6441  10.3677  11.2663  13.0244  14.7855

          k =-0.2000 0.4000-0.2000 (   376 PWs)   bands (ev):

    -2.9524   5.8946   9.9572  10.6255  12.6782  15.0855

          k =-0.3000 0.5000-0.3000 (   385 PWs)   bands (ev):

    -1.7504   3.4082   9.8637   9.9812  12.1595  15.0391

          k = 0.6000-0.4000 0.6000 (   389 PWs)   bands (ev):

    -0.2872   1.3544   9.3809  10.0822  12.2050  14.2890

          k = 0.5000-0.3000 0.5000 (   386 PWs)   bands (ev):

    -0.7764   1.9631   8.9768  10.5781  12.7398  13.9160

          k = 0.4000-0.2000 0.4000 (   382 PWs)   bands (ev):

    -2.1904   4.2014   8.8616  11.2704  13.6624  13.9965

          k = 0.3000-0.1000 0.3000 (   379 PWs)   bands (ev):

    -3.2726   6.7923   9.0633  12.0004  14.5345  14.7413

          k = 0.2000 0.0000 0.2000 (   379 PWs)   bands (ev):

    -3.9803   9.5763   9.6140  12.4868  14.4467  14.6975

          k = 0.0000 0.4000 0.0000 (   367 PWs)   bands (ev):

    -3.4639   9.5415   9.5415  10.0029  11.0606  12.8505

          k =-0.1000 0.5000-0.1000 (   378 PWs)   bands (ev):

    -2.7582   7.2021   9.0257   9.1674  11.1112  12.6536

          k =-0.2000 0.6000-0.2000 (   384 PWs)   bands (ev):

    -1.6784   4.6641   8.0898   8.8430  10.8173  14.4585

          k = 0.7000-0.3000 0.7000 (   385 PWs)   bands (ev):

    -0.2677   2.4454   7.1828   8.9966  10.9090  16.3566

          k = 0.6000-0.2000 0.6000 (   382 PWs)   bands (ev):

     0.2167   1.8477   6.5707   9.4781  11.4154  15.8142

          k = 0.5000-0.1000 0.5000 (   385 PWs)   bands (ev):

    -1.2436   3.8938   6.2923  10.2598  12.2998  15.5913

          k = 0.4000 0.0000 0.4000 (   377 PWs)   bands (ev):

    -2.4418   6.3292   6.4038  11.2550  13.5129  15.6404

          k = 0.0000 0.6000 0.0000 (   379 PWs)   bands (ev):

    -2.1809   7.4183   8.4006   8.4006   9.8108  10.7766

          k =-0.1000 0.7000-0.1000 (   382 PWs)   bands (ev):

    -1.2282   5.8173   6.6686   8.1110   9.8822  11.5856

          k = 0.8000-0.2000 0.8000 (   387 PWs)   bands (ev):

     0.0779   3.8387   5.2442   8.1606   9.9394  13.8270

          k = 0.7000-0.1000 0.7000 (   388 PWs)   bands (ev):

     1.3275   2.3123   4.4052   8.5493  10.3604  16.3424

          k = 0.6000 0.0000 0.6000 (   387 PWs)   bands (ev):

     0.0528   3.8885   4.0313   9.2658  11.1578  17.4564

          k = 0.0000 0.8000 0.0000 (   383 PWs)   bands (ev):

    -0.4036   4.5099   7.7075   7.7075   9.0479   9.8151

          k = 0.9000-0.1000 0.9000 (   389 PWs)   bands (ev):

     0.7813   3.2320   5.9308   7.6465   9.3265  11.0808

          k = 0.8000 0.0000 0.8000 (   385 PWs)   bands (ev):

     2.0929   2.4119   3.9849   7.9303   9.6645  13.6095

          k = 0.0000-1.0000 0.0000 (   388 PWs)   bands (ev):

     1.7732   1.9176   7.4745   7.4745   8.7912   9.5222

          k =-0.2000 0.4000 0.0000 (   378 PWs)   bands (ev):

    -3.2077   7.9875   7.9899  11.0441  13.0525  13.7896

          k =-0.3000 0.5000-0.1000 (   385 PWs)   bands (ev):

    -2.2505   5.3424   7.6652  10.0019  12.9769  14.7007

          k = 0.6000-0.4000 0.8000 (   386 PWs)   bands (ev):

    -0.9373   2.9828   7.6502   9.0663  12.8938  14.2250

          k = 0.5000-0.3000 0.7000 (   388 PWs)   bands (ev):

     0.3301   1.3628   7.7608   8.6257  12.9742  13.8212

          k =-0.2000 0.6000 0.0000 (   385 PWs)   bands (ev):

    -1.9288   6.6528   6.7929   8.2352  11.8791  12.3039

          k = 0.7000-0.3000 0.9000 (   389 PWs)   bands (ev):

    -0.7334   4.3363   6.3747   7.2934  11.9908  14.1720

          k = 0.6000-0.2000 0.8000 (   385 PWs)   bands (ev):

     0.7240   2.3195   5.7845   7.2757  12.2587  15.5665

          k = 0.5000-0.1000 0.7000 (   389 PWs)   bands (ev):

     0.2275   2.9370   5.3070   7.8534  12.8478  15.2490

          k = 0.4000 0.0000 0.6000 (   390 PWs)   bands (ev):

    -1.1762   5.1106   5.1844   8.8078  13.6495  14.9265

          k = 0.8000-0.2000 1.0000 (   393 PWs)   bands (ev):

    -0.1595   4.6373   6.0658   6.5015  11.1570  11.5378

          k = 0.7000-0.1000 0.9000 (   385 PWs)   bands (ev):

     1.2372   3.4203   4.3284   6.4480  11.5104  13.7653

          k = 0.6000 0.0000 0.8000 (   386 PWs)   bands (ev):

     1.6325   3.1511   3.4362   6.9643  12.0309  16.2874

          k =-0.2000-1.0000 0.0000 (   384 PWs)   bands (ev):

     1.9784   2.1652   5.8257   6.1587  10.9150  11.2926

          k = 0.6000-0.2000 1.0000 (   392 PWs)   bands (ev):

     0.5601   4.2932   4.3766   5.9852  14.0681  14.2444

          k = 0.5000-0.1000 0.9000 (   388 PWs)   bands (ev):

     1.8149   2.7795   4.4591   5.4610  14.1917  15.1621

          k =-0.4000-1.0000 0.0000 (   388 PWs)   bands (ev):

     2.4601   2.9051   4.1315   4.7905  13.9983  14.0130

     the Fermi energy is     3.6584 ev

!    total energy              =     -12.41811012 Ry
     estimated scf accuracy    <          1.4E-09 Ry
     smearing contrib. (-TS)   =       0.00097648 Ry
     internal energy E=F+TS    =     -12.41908660 Ry

     The total energy is F=E-TS. E is the sum of the following terms:
     one-electron contribution =       1.95718339 Ry
     hartree contribution      =       0.02506809 Ry
     xc contribution           =      -9.81647596 Ry
     ewald contribution        =      -4.58486212 Ry

     convergence has been achieved in   5 iterations

     Forces acting on atoms (cartesian axes, Ry/au):

     atom    1 type  1   force =     0.00000000    0.00000000    0.00000000

     Total force =     0.000000     Total SCF correction =     0.000000


     Computing stress (Cartesian axis) and pressure

          total   stress  (Ry/bohr**3)                   (kbar)     P=     -119.34
  -0.00081127   0.00000000   0.00000000         -119.34        0.00        0.00
   0.00000000  -0.00081127  -0.00000000            0.00     -119.34       -0.00
   0.00000000  -0.00000000  -0.00081127            0.00       -0.00     -119.34


     Writing all to output data dir /Users/zhy/Aluminum-from-First-Principles/convergence-runs/cutoff-kmesh/ecut-025.0-ry_k-10x10x10_degauss-0.050-ry/qe-out/aluminum_ecut-025p0-ry_k-10x10x10_degauss-0p050-ry.save/ :
     XML data file, charge density, pseudopotentials, collected wavefunctions

     init_run     :      0.23s CPU      0.24s WALL (       1 calls)
     electrons    :      0.48s CPU      0.50s WALL (       1 calls)
     forces       :      0.00s CPU      0.00s WALL (       1 calls)
     stress       :      0.02s CPU      0.02s WALL (       1 calls)

     Called by init_run:
     wfcinit      :      0.02s CPU      0.03s WALL (       1 calls)
     potinit      :      0.10s CPU      0.10s WALL (       1 calls)
     hinit0       :      0.10s CPU      0.10s WALL (       1 calls)

     Called by electrons:
     c_bands      :      0.39s CPU      0.40s WALL (       6 calls)
     sum_band     :      0.08s CPU      0.08s WALL (       6 calls)
     v_of_rho     :      0.02s CPU      0.02s WALL (       6 calls)
     newd         :      0.00s CPU      0.00s WALL (       6 calls)
     mix_rho      :      0.00s CPU      0.00s WALL (       6 calls)

     Called by c_bands:
     init_us_2    :      0.01s CPU      0.01s WALL (     705 calls)
     cegterg      :      0.38s CPU      0.40s WALL (     282 calls)

     Called by *egterg:
     cdiaghg      :      0.02s CPU      0.02s WALL (    1038 calls)
     h_psi        :      0.35s CPU      0.37s WALL (    1132 calls)
     s_psi        :      0.00s CPU      0.00s WALL (    1132 calls)
     g_psi        :      0.00s CPU      0.00s WALL (     803 calls)

     Called by h_psi:
     h_psi:calbec :      0.00s CPU      0.00s WALL (    1132 calls)
     vloc_psi     :      0.35s CPU      0.36s WALL (    1132 calls)
     add_vuspsi   :      0.00s CPU      0.00s WALL (    1132 calls)

     General routines
     calbec       :      0.01s CPU      0.01s WALL (    2213 calls)
     fft          :      0.09s CPU      0.09s WALL (     102 calls)
     ffts         :      0.09s CPU      0.09s WALL (      12 calls)
     fftw         :      0.37s CPU      0.38s WALL (   11100 calls)
     interpolate  :      0.09s CPU      0.09s WALL (       6 calls)

     Parallel routines

     PWSCF        :      0.75s CPU      0.78s WALL


   This run was terminated on:  23:45:21  22Sep2026            

=------------------------------------------------------------------------------=
   JOB DONE.
=------------------------------------------------------------------------------=
Note: The following floating-point exceptions are signalling: IEEE_INVALID_FLAG IEEE_DIVIDE_BY_ZERO IEEE_UNDERFLOW_FLAG
Note: The following floating-point exceptions are signalling: IEEE_UNDERFLOW_FLAG
