
     Program PWSCF v.7.6 starts on 23Sep2026 at  1:28: 2 

     This program is part of the open-source Quantum ESPRESSO suite
     for quantum simulation of materials; please cite
         "P. Giannozzi et al., J. Phys.:Condens. Matter 21 395502 (2009);
         "P. Giannozzi et al., J. Phys.:Condens. Matter 29 465901 (2017);
         "P. Giannozzi et al., J. Chem. Phys. 152 154105 (2020);
          URL http://www.quantum-espresso.org", 
     in publications or presentations arising from this work. More details at
     http://www.quantum-espresso.org/quote

     Parallel version (MPI), running on     2 processors

     MPI processes distributed on     1 nodes
     0 MiB available memory on the printing compute node when the environment starts

     Reading input from Al.scf.inp

     Current dimensions of program PWSCF are:
     Max number of different atomic species (ntypx) = 10
     Max number of k-points (npk) =  40000
     Max angular momentum in pseudopotentials (lmaxx) =  4

     R & G space division:  proc/nbgrp/npool/nimage =       2
     Subspace diagonalization in iterative solution of the eigenvalue problem:
     a serial algorithm will be used


     Parallelization info
     --------------------
     sticks:   dense  smooth     PW     G-vecs:    dense   smooth      PW
     Min         384     189     60                 7164     2513     469
     Max         385     190     61                 7167     2516     472
     Sum         769     379    121                14331     5029     941

     Using Slab Decomposition



     bravais-lattice index     =            2
     lattice parameter (alat)  =       9.0000  a.u.
     unit-cell volume          =     182.2500 (a.u.)^3
     number of atoms/cell      =            1
     number of atomic types    =            1
     number of electrons       =         3.00
     number of Kohn-Sham states=            6
     kinetic-energy cutoff     =      35.0000  Ry
     charge density cutoff     =     280.0000  Ry
     scf convergence threshold =      1.0E-08
     mixing beta               =       0.7000
     number of iterations used =            8  plain     mixing
     Exchange-correlation= SLA  PW   PBE  PBE
                           (   1   4   3   4   0   0   0)

     celldm(1)=   9.000000  celldm(2)=   0.000000  celldm(3)=   0.000000
     celldm(4)=   0.000000  celldm(5)=   0.000000  celldm(6)=   0.000000

     crystal axes: (cart. coord. in units of alat)
               a(1) = (  -0.500000   0.000000   0.500000 )  
               a(2) = (   0.000000   0.500000   0.500000 )  
               a(3) = (  -0.500000   0.500000   0.000000 )  

     reciprocal axes: (cart. coord. in units 2 pi/alat)
               b(1) = ( -1.000000 -1.000000  1.000000 )  
               b(2) = (  1.000000  1.000000  1.000000 )  
               b(3) = ( -1.000000  1.000000 -1.000000 )  


     PseudoPot. # 1 for Al read from file:
     /Users/zhy/Aluminum-from-First-Principles/Al.pbe-n-van.UPF
     MD5 check sum: cbc97ad259b400557db688b98a6ada97
     Pseudo is Ultrasoft + core correction, Zval =  3.0
     Generated by new atomic code, or converted to UPF format
     Using radial grid of  893 points,  2 beta functions with: 
                l(1) =   0
                l(2) =   1
     Q(r) pseudized with  8 coefficients,  rinner =    0.900   0.900   0.900


     atomic species   valence    mass     pseudopotential
     Al                3.00    26.98200     Al( 1.00)

     48 Sym. Ops., with inversion, found



   Cartesian axes

     site n.     atom                  positions (alat units)
         1        Al     tau(   1) = (   0.0000000   0.0000000   0.0000000  )

     number of k points=     8  Methfessel-Paxton smearing, width (Ry)=  0.0100
                       cart. coord. in units 2pi/alat
        k(    1) = (   0.0000000   0.0000000   0.0000000), wk =   0.0312500
        k(    2) = (  -0.2500000   0.2500000  -0.2500000), wk =   0.2500000
        k(    3) = (   0.5000000  -0.5000000   0.5000000), wk =   0.1250000
        k(    4) = (   0.0000000   0.5000000   0.0000000), wk =   0.1875000
        k(    5) = (   0.7500000  -0.2500000   0.7500000), wk =   0.7500000
        k(    6) = (   0.5000000   0.0000000   0.5000000), wk =   0.3750000
        k(    7) = (   0.0000000  -1.0000000   0.0000000), wk =   0.0937500
        k(    8) = (  -0.5000000  -1.0000000   0.0000000), wk =   0.1875000

     Dense  grid:    14331 G-vectors     FFT dimensions: (  36,  36,  36)

     Smooth grid:     5029 G-vectors     FFT dimensions: (  24,  24,  24)

     Estimated max dynamical RAM per process >       7.57 MB

     Estimated total dynamical RAM >      15.13 MB

     Initial potential from superposition of free atoms

     starting charge       2.9975, renormalised to       3.0000
     Starting wfcs are    4 randomized atomic wfcs +    2 random wfcs

     total cpu time spent up to now is        0.3 secs

     Self-consistent Calculation

     iteration #  1     ecut=    35.00 Ry     beta= 0.70
     Davidson diagonalization with overlap
     ethr =  1.00E-02,  avg # of iterations =  5.2

     Threshold (ethr) on eigenvalues was too large:
     Diagonalizing with lowered threshold

     Davidson diagonalization with overlap
     ethr =  1.16E-04,  avg # of iterations =  2.9

     total cpu time spent up to now is        0.4 secs

     total energy              =     -12.40623750 Ry
     estimated scf accuracy    <       0.00328657 Ry

     iteration #  2     ecut=    35.00 Ry     beta= 0.70
     Davidson diagonalization with overlap
     ethr =  1.10E-04,  avg # of iterations =  1.0

     total cpu time spent up to now is        0.4 secs

     total energy              =     -12.40632098 Ry
     estimated scf accuracy    <       0.00015273 Ry

     iteration #  3     ecut=    35.00 Ry     beta= 0.70
     Davidson diagonalization with overlap
     ethr =  5.09E-06,  avg # of iterations =  3.1

     total cpu time spent up to now is        0.4 secs

     total energy              =     -12.40634678 Ry
     estimated scf accuracy    <       0.00000073 Ry

     iteration #  4     ecut=    35.00 Ry     beta= 0.70
     Davidson diagonalization with overlap
     ethr =  2.42E-08,  avg # of iterations =  3.0

     total cpu time spent up to now is        0.4 secs

     total energy              =     -12.40634748 Ry
     estimated scf accuracy    <       0.00000003 Ry

     iteration #  5     ecut=    35.00 Ry     beta= 0.70
     Davidson diagonalization with overlap
     ethr =  9.28E-10,  avg # of iterations =  1.5

     total cpu time spent up to now is        0.4 secs

     End of self-consistent calculation

          k = 0.0000 0.0000 0.0000 (   609 PWs)   bands (ev):

    -4.4842  12.4474  12.4474  12.4474  13.9363  13.9363

          k =-0.2500 0.2500-0.2500 (   631 PWs)   bands (ev):

    -3.2761   6.1867  11.1742  11.1742  13.8243  14.7421

          k = 0.5000-0.5000 0.5000 (   628 PWs)   bands (ev):

    -0.1615   0.8758  10.8560  10.8560  13.1553  13.6553

          k = 0.0000 0.5000 0.0000 (   632 PWs)   bands (ev):

    -2.8726   8.8073   8.9055   8.9055  10.3731  11.6154

          k = 0.7500-0.2500 0.7500 (   643 PWs)   bands (ev):

    -0.1264   3.1374   6.1481   8.5325  10.3703  15.2314

          k = 0.5000 0.0000 0.5000 (   636 PWs)   bands (ev):

    -1.2914   4.9922   5.1002  10.2028  12.2298  16.3511

          k = 0.0000-1.0000 0.0000 (   636 PWs)   bands (ev):

     1.7894   1.9216   7.4708   7.4708   8.7901   9.5134

          k =-0.5000-1.0000 0.0000 (   648 PWs)   bands (ev):

     2.6063   3.4612   3.4612   4.5481  14.8199  15.7108

     the Fermi energy is     3.3682 ev

!    total energy              =     -12.40634749 Ry
     estimated scf accuracy    <          1.7E-10 Ry
     smearing contrib. (-TS)   =       0.00026163 Ry
     internal energy E=F+TS    =     -12.40660911 Ry

     The total energy is F=E-TS. E is the sum of the following terms:
     one-electron contribution =       1.97598426 Ry
     hartree contribution      =       0.02838817 Ry
     xc contribution           =      -9.82611946 Ry
     ewald contribution        =      -4.58486207 Ry

     convergence has been achieved in   5 iterations

     Forces acting on atoms (cartesian axes, Ry/au):

     atom    1 type  1   force =     0.00000000    0.00000000    0.00000000

     Total force =     0.000000     Total SCF correction =     0.000000


     Computing stress (Cartesian axis) and pressure

          total   stress  (Ry/bohr**3)                   (kbar)     P=      -80.75
  -0.00054891   0.00000000   0.00000000          -80.75        0.00        0.00
   0.00000000  -0.00054891  -0.00000000            0.00      -80.75       -0.00
   0.00000000  -0.00000000  -0.00054891            0.00       -0.00      -80.75


     Writing all to output data dir /Users/zhy/Aluminum-from-First-Principles/convergence-runs/smearing/ecut-035.0-ry_k-04x04x04_degauss-0.010-ry/qe-out/aluminum_ecut-035p0-ry_k-04x04x04_degauss-0p010-ry.save/ :
     XML data file, charge density, pseudopotentials, collected wavefunctions

     init_run     :      0.29s CPU      0.30s WALL (       1 calls)
     electrons    :      0.13s CPU      0.13s WALL (       1 calls)
     forces       :      0.01s CPU      0.01s WALL (       1 calls)
     stress       :      0.02s CPU      0.02s WALL (       1 calls)

     Called by init_run:
     wfcinit      :      0.00s CPU      0.00s WALL (       1 calls)
     potinit      :      0.10s CPU      0.10s WALL (       1 calls)
     hinit0       :      0.17s CPU      0.17s WALL (       1 calls)

     Called by electrons:
     c_bands      :      0.07s CPU      0.08s WALL (       6 calls)
     sum_band     :      0.02s CPU      0.02s WALL (       6 calls)
     v_of_rho     :      0.03s CPU      0.03s WALL (       6 calls)
     newd         :      0.01s CPU      0.01s WALL (       6 calls)
     mix_rho      :      0.00s CPU      0.00s WALL (       6 calls)

     Called by c_bands:
     init_us_2    :      0.00s CPU      0.00s WALL (     120 calls)
     cegterg      :      0.07s CPU      0.08s WALL (      48 calls)

     Called by *egterg:
     cdiaghg      :      0.00s CPU      0.00s WALL (     174 calls)
     h_psi        :      0.06s CPU      0.07s WALL (     190 calls)
     s_psi        :      0.00s CPU      0.00s WALL (     190 calls)
     g_psi        :      0.00s CPU      0.00s WALL (     134 calls)

     Called by h_psi:
     h_psi:calbec :      0.00s CPU      0.00s WALL (     190 calls)
     vloc_psi     :      0.06s CPU      0.07s WALL (     190 calls)
     add_vuspsi   :      0.00s CPU      0.00s WALL (     190 calls)

     General routines
     calbec       :      0.00s CPU      0.00s WALL (     374 calls)
     fft          :      0.16s CPU      0.16s WALL (     102 calls)
     ffts         :      0.09s CPU      0.10s WALL (      12 calls)
     fftw         :      0.07s CPU      0.07s WALL (    1890 calls)
     interpolate  :      0.10s CPU      0.10s WALL (       6 calls)

     Parallel routines

     PWSCF        :      0.45s CPU      0.47s WALL


   This run was terminated on:   1:28: 2  23Sep2026            

=------------------------------------------------------------------------------=
   JOB DONE.
=------------------------------------------------------------------------------=
Note: The following floating-point exceptions are signalling: IEEE_UNDERFLOW_FLAG
Note: The following floating-point exceptions are signalling: IEEE_INVALID_FLAG IEEE_DIVIDE_BY_ZERO IEEE_UNDERFLOW_FLAG
