
     Program PWSCF v.7.6 starts on 23Sep2026 at  1:12:47 

     This program is part of the open-source Quantum ESPRESSO suite
     for quantum simulation of materials; please cite
         "P. Giannozzi et al., J. Phys.:Condens. Matter 21 395502 (2009);
         "P. Giannozzi et al., J. Phys.:Condens. Matter 29 465901 (2017);
         "P. Giannozzi et al., J. Chem. Phys. 152 154105 (2020);
          URL http://www.quantum-espresso.org", 
     in publications or presentations arising from this work. More details at
     http://www.quantum-espresso.org/quote

     Parallel version (MPI), running on     2 processors

     MPI processes distributed on     1 nodes
     0 MiB available memory on the printing compute node when the environment starts

     Reading input from Al.scf.inp

     Current dimensions of program PWSCF are:
     Max number of different atomic species (ntypx) = 10
     Max number of k-points (npk) =  40000
     Max angular momentum in pseudopotentials (lmaxx) =  4

     R & G space division:  proc/nbgrp/npool/nimage =       2
     Subspace diagonalization in iterative solution of the eigenvalue problem:
     a serial algorithm will be used


     Parallelization info
     --------------------
     sticks:   dense  smooth     PW     G-vecs:    dense   smooth      PW
     Min         501     249     81                10436     3694     681
     Max         502     250     82                10439     3697     682
     Sum        1003     499    163                20875     7391    1363

     Using Slab Decomposition



     bravais-lattice index     =            2
     lattice parameter (alat)  =       9.0000  a.u.
     unit-cell volume          =     182.2500 (a.u.)^3
     number of atoms/cell      =            1
     number of atomic types    =            1
     number of electrons       =         3.00
     number of Kohn-Sham states=            6
     kinetic-energy cutoff     =      45.0000  Ry
     charge density cutoff     =     360.0000  Ry
     scf convergence threshold =      1.0E-08
     mixing beta               =       0.7000
     number of iterations used =            8  plain     mixing
     Exchange-correlation= SLA  PW   PBE  PBE
                           (   1   4   3   4   0   0   0)

     celldm(1)=   9.000000  celldm(2)=   0.000000  celldm(3)=   0.000000
     celldm(4)=   0.000000  celldm(5)=   0.000000  celldm(6)=   0.000000

     crystal axes: (cart. coord. in units of alat)
               a(1) = (  -0.500000   0.000000   0.500000 )  
               a(2) = (   0.000000   0.500000   0.500000 )  
               a(3) = (  -0.500000   0.500000   0.000000 )  

     reciprocal axes: (cart. coord. in units 2 pi/alat)
               b(1) = ( -1.000000 -1.000000  1.000000 )  
               b(2) = (  1.000000  1.000000  1.000000 )  
               b(3) = ( -1.000000  1.000000 -1.000000 )  


     PseudoPot. # 1 for Al read from file:
     /Users/zhy/Aluminum-from-First-Principles/Al.pbe-n-van.UPF
     MD5 check sum: cbc97ad259b400557db688b98a6ada97
     Pseudo is Ultrasoft + core correction, Zval =  3.0
     Generated by new atomic code, or converted to UPF format
     Using radial grid of  893 points,  2 beta functions with: 
                l(1) =   0
                l(2) =   1
     Q(r) pseudized with  8 coefficients,  rinner =    0.900   0.900   0.900


     atomic species   valence    mass     pseudopotential
     Al                3.00    26.98200     Al( 1.00)

     48 Sym. Ops., with inversion, found



   Cartesian axes

     site n.     atom                  positions (alat units)
         1        Al     tau(   1) = (   0.0000000   0.0000000   0.0000000  )

     number of k points=    47  Methfessel-Paxton smearing, width (Ry)=  0.0500
                       cart. coord. in units 2pi/alat
        k(    1) = (   0.0000000   0.0000000   0.0000000), wk =   0.0020000
        k(    2) = (  -0.1000000   0.1000000  -0.1000000), wk =   0.0160000
        k(    3) = (  -0.2000000   0.2000000  -0.2000000), wk =   0.0160000
        k(    4) = (  -0.3000000   0.3000000  -0.3000000), wk =   0.0160000
        k(    5) = (  -0.4000000   0.4000000  -0.4000000), wk =   0.0160000
        k(    6) = (   0.5000000  -0.5000000   0.5000000), wk =   0.0080000
        k(    7) = (   0.0000000   0.2000000   0.0000000), wk =   0.0120000
        k(    8) = (  -0.1000000   0.3000000  -0.1000000), wk =   0.0480000
        k(    9) = (  -0.2000000   0.4000000  -0.2000000), wk =   0.0480000
        k(   10) = (  -0.3000000   0.5000000  -0.3000000), wk =   0.0480000
        k(   11) = (   0.6000000  -0.4000000   0.6000000), wk =   0.0480000
        k(   12) = (   0.5000000  -0.3000000   0.5000000), wk =   0.0480000
        k(   13) = (   0.4000000  -0.2000000   0.4000000), wk =   0.0480000
        k(   14) = (   0.3000000  -0.1000000   0.3000000), wk =   0.0480000
        k(   15) = (   0.2000000   0.0000000   0.2000000), wk =   0.0240000
        k(   16) = (   0.0000000   0.4000000   0.0000000), wk =   0.0120000
        k(   17) = (  -0.1000000   0.5000000  -0.1000000), wk =   0.0480000
        k(   18) = (  -0.2000000   0.6000000  -0.2000000), wk =   0.0480000
        k(   19) = (   0.7000000  -0.3000000   0.7000000), wk =   0.0480000
        k(   20) = (   0.6000000  -0.2000000   0.6000000), wk =   0.0480000
        k(   21) = (   0.5000000  -0.1000000   0.5000000), wk =   0.0480000
        k(   22) = (   0.4000000   0.0000000   0.4000000), wk =   0.0240000
        k(   23) = (   0.0000000   0.6000000   0.0000000), wk =   0.0120000
        k(   24) = (  -0.1000000   0.7000000  -0.1000000), wk =   0.0480000
        k(   25) = (   0.8000000  -0.2000000   0.8000000), wk =   0.0480000
        k(   26) = (   0.7000000  -0.1000000   0.7000000), wk =   0.0480000
        k(   27) = (   0.6000000   0.0000000   0.6000000), wk =   0.0240000
        k(   28) = (   0.0000000   0.8000000   0.0000000), wk =   0.0120000
        k(   29) = (   0.9000000  -0.1000000   0.9000000), wk =   0.0480000
        k(   30) = (   0.8000000   0.0000000   0.8000000), wk =   0.0240000
        k(   31) = (   0.0000000  -1.0000000   0.0000000), wk =   0.0060000
        k(   32) = (  -0.2000000   0.4000000   0.0000000), wk =   0.0480000
        k(   33) = (  -0.3000000   0.5000000  -0.1000000), wk =   0.0960000
        k(   34) = (   0.6000000  -0.4000000   0.8000000), wk =   0.0960000
        k(   35) = (   0.5000000  -0.3000000   0.7000000), wk =   0.0480000
        k(   36) = (  -0.2000000   0.6000000   0.0000000), wk =   0.0480000
        k(   37) = (   0.7000000  -0.3000000   0.9000000), wk =   0.0960000
        k(   38) = (   0.6000000  -0.2000000   0.8000000), wk =   0.0960000
        k(   39) = (   0.5000000  -0.1000000   0.7000000), wk =   0.0960000
        k(   40) = (   0.4000000   0.0000000   0.6000000), wk =   0.0480000
        k(   41) = (   0.8000000  -0.2000000   1.0000000), wk =   0.0480000
        k(   42) = (   0.7000000  -0.1000000   0.9000000), wk =   0.0960000
        k(   43) = (   0.6000000   0.0000000   0.8000000), wk =   0.0480000
        k(   44) = (  -0.2000000  -1.0000000   0.0000000), wk =   0.0240000
        k(   45) = (   0.6000000  -0.2000000   1.0000000), wk =   0.0480000
        k(   46) = (   0.5000000  -0.1000000   0.9000000), wk =   0.0480000
        k(   47) = (  -0.4000000  -1.0000000   0.0000000), wk =   0.0240000

     Dense  grid:    20875 G-vectors     FFT dimensions: (  40,  40,  40)

     Smooth grid:     7391 G-vectors     FFT dimensions: (  27,  27,  27)

     Estimated max dynamical RAM per process >      12.51 MB

     Estimated total dynamical RAM >      25.01 MB

     Initial potential from superposition of free atoms

     starting charge       2.9975, renormalised to       3.0000
     Starting wfcs are    4 randomized atomic wfcs +    2 random wfcs

     total cpu time spent up to now is        0.3 secs

     Self-consistent Calculation

     iteration #  1     ecut=    45.00 Ry     beta= 0.70
     Davidson diagonalization with overlap
     ethr =  1.00E-02,  avg # of iterations =  5.2

     Threshold (ethr) on eigenvalues was too large:
     Diagonalizing with lowered threshold

     Davidson diagonalization with overlap
     ethr =  1.77E-04,  avg # of iterations =  3.0

     total cpu time spent up to now is        0.6 secs

     total energy              =     -12.41964592 Ry
     estimated scf accuracy    <       0.00512109 Ry

     iteration #  2     ecut=    45.00 Ry     beta= 0.70
     Davidson diagonalization with overlap
     ethr =  1.71E-04,  avg # of iterations =  1.0

     total cpu time spent up to now is        0.8 secs

     total energy              =     -12.41977822 Ry
     estimated scf accuracy    <       0.00023905 Ry

     iteration #  3     ecut=    45.00 Ry     beta= 0.70
     Davidson diagonalization with overlap
     ethr =  7.97E-06,  avg # of iterations =  3.0

     total cpu time spent up to now is        0.9 secs

     total energy              =     -12.41981346 Ry
     estimated scf accuracy    <       0.00000108 Ry

     iteration #  4     ecut=    45.00 Ry     beta= 0.70
     Davidson diagonalization with overlap
     c_bands:  1 eigenvalues not converged
     ethr =  3.60E-08,  avg # of iterations =  3.4

     total cpu time spent up to now is        1.1 secs

     total energy              =     -12.41981491 Ry
     estimated scf accuracy    <       0.00000005 Ry

     iteration #  5     ecut=    45.00 Ry     beta= 0.70
     Davidson diagonalization with overlap
     ethr =  1.83E-09,  avg # of iterations =  1.6

     total cpu time spent up to now is        1.2 secs

     End of self-consistent calculation

          k = 0.0000 0.0000 0.0000 (   941 PWs)   bands (ev):

    -4.4981  12.4151  12.4151  12.4151  13.9177  13.9177

          k =-0.1000 0.1000-0.1000 (   923 PWs)   bands (ev):

    -4.3041  10.3871  11.9490  11.9490  14.2022  14.5926

          k =-0.2000 0.2000-0.2000 (   920 PWs)   bands (ev):

    -3.7237   7.5430  11.3604  11.3604  13.9371  15.0904

          k =-0.3000 0.3000-0.3000 (   932 PWs)   bands (ev):

    -2.7641   4.8603  10.9964  10.9964  13.6930  14.2404

          k =-0.4000 0.4000-0.4000 (   932 PWs)   bands (ev):

    -1.4486   2.4881  10.8512  10.8512  13.4449  13.4449

          k = 0.5000-0.5000 0.5000 (   912 PWs)   bands (ev):

    -0.1819   0.8663  10.8274  10.8274  13.1418  13.6183

          k = 0.0000 0.2000 0.0000 (   933 PWs)   bands (ev):

    -4.2394  11.0414  11.0414  11.6599  12.6831  15.6103

          k =-0.1000 0.3000-0.1000 (   925 PWs)   bands (ev):

    -3.7877   8.6158  10.3299  11.2202  12.9911  14.7573

          k =-0.2000 0.4000-0.2000 (   936 PWs)   bands (ev):

    -2.9540   5.8783   9.9205  10.5823  12.6542  15.0349

          k =-0.3000 0.5000-0.3000 (   921 PWs)   bands (ev):

    -1.7528   3.3986   9.8300   9.9450  12.1393  14.9994

          k = 0.6000-0.4000 0.6000 (   928 PWs)   bands (ev):

    -0.2904   1.3474   9.3508  10.0490  12.1826  14.2573

          k = 0.5000-0.3000 0.5000 (   929 PWs)   bands (ev):

    -0.7798   1.9552   8.9484  10.5418  12.7137  13.8870

          k = 0.4000-0.2000 0.4000 (   924 PWs)   bands (ev):

    -2.1925   4.1905   8.8313  11.2249  13.6299  13.9693

          k = 0.3000-0.1000 0.3000 (   929 PWs)   bands (ev):

    -3.2741   6.7727   9.0348  11.9487  14.5080  14.6906

          k = 0.2000 0.0000 0.2000 (   923 PWs)   bands (ev):

    -3.9812   9.5415   9.5879  12.4319  14.4189  14.6520

          k = 0.0000 0.4000 0.0000 (   926 PWs)   bands (ev):

    -3.4654   9.5069   9.5069   9.9531  11.0406  12.8292

          k =-0.1000 0.5000-0.1000 (   933 PWs)   bands (ev):

    -2.7599   7.1810   8.9942   9.1324  11.0905  12.6204

          k =-0.2000 0.6000-0.2000 (   926 PWs)   bands (ev):

    -1.6811   4.6525   8.0638   8.8134  10.7963  14.4179

          k = 0.7000-0.3000 0.7000 (   932 PWs)   bands (ev):

    -0.2716   2.4368   7.1619   8.9668  10.8861  16.3031

          k = 0.6000-0.2000 0.6000 (   931 PWs)   bands (ev):

     0.2127   1.8389   6.5507   9.4459  11.3900  15.7753

          k = 0.5000-0.1000 0.5000 (   924 PWs)   bands (ev):

    -1.2468   3.8840   6.2743  10.2234  12.2714  15.5532

          k = 0.4000 0.0000 0.4000 (   925 PWs)   bands (ev):

    -2.4436   6.3103   6.3827  11.2098  13.4782  15.6042

          k = 0.0000 0.6000 0.0000 (   926 PWs)   bands (ev):

    -2.1835   7.3977   8.3719   8.3720   9.7928  10.7519

          k =-0.1000 0.7000-0.1000 (   929 PWs)   bands (ev):

    -1.2315   5.8019   6.6516   8.0829   9.8614  11.5519

          k = 0.8000-0.2000 0.8000 (   927 PWs)   bands (ev):

     0.0734   3.8285   5.2309   8.1338   9.9180  13.7870

          k = 0.7000-0.1000 0.7000 (   933 PWs)   bands (ev):

     1.3226   2.3029   4.3936   8.5221  10.3382  16.2951

          k = 0.6000 0.0000 0.6000 (   927 PWs)   bands (ev):

     0.0486   3.8770   4.0212   9.2344  11.1323  17.4080

          k = 0.0000 0.8000 0.0000 (   938 PWs)   bands (ev):

    -0.4078   4.4972   7.6826   7.6826   9.0313   9.7906

          k = 0.9000-0.1000 0.9000 (   940 PWs)   bands (ev):

     0.7757   3.2228   5.9158   7.6232   9.3077  11.0510

          k = 0.8000 0.0000 0.8000 (   940 PWs)   bands (ev):

     2.0871   2.4015   3.9744   7.9055   9.6441  13.5675

          k = 0.0000-1.0000 0.0000 (   934 PWs)   bands (ev):

     1.7681   1.9080   7.4519   7.4519   8.7760   9.4988

          k =-0.2000 0.4000 0.0000 (   930 PWs)   bands (ev):

    -3.2092   7.9619   7.9680  10.9988  13.0218  13.7594

          k =-0.3000 0.5000-0.1000 (   925 PWs)   bands (ev):

    -2.2525   5.3288   7.6421   9.9693  12.9458  14.6592

          k = 0.6000-0.4000 0.8000 (   923 PWs)   bands (ev):

    -0.9406   2.9739   7.6268   9.0400  12.8616  14.1852

          k = 0.5000-0.3000 0.7000 (   934 PWs)   bands (ev):

     0.3269   1.3547   7.7368   8.6034  12.9401  13.7852

          k =-0.2000 0.6000 0.0000 (   925 PWs)   bands (ev):

    -1.9312   6.6321   6.7746   8.2133  11.8522  12.2687

          k = 0.7000-0.3000 0.9000 (   926 PWs)   bands (ev):

    -0.7372   4.3252   6.3571   7.2758  11.9606  14.1317

          k = 0.6000-0.2000 0.8000 (   935 PWs)   bands (ev):

     0.7190   2.3103   5.7691   7.2561  12.2251  15.5222

          k = 0.5000-0.1000 0.7000 (   928 PWs)   bands (ev):

     0.2231   2.9278   5.2936   7.8318  12.8128  15.2070

          k = 0.4000 0.0000 0.6000 (   922 PWs)   bands (ev):

    -1.1794   5.0979   5.1722   8.7828  13.6113  14.8927

          k = 0.8000-0.2000 1.0000 (   932 PWs)   bands (ev):

    -0.1633   4.6251   6.0511   6.4863  11.1327  11.5026

          k = 0.7000-0.1000 0.9000 (   931 PWs)   bands (ev):

     1.2305   3.4104   4.3169   6.4307  11.4786  13.7243

          k = 0.6000 0.0000 0.8000 (   926 PWs)   bands (ev):

     1.6267   3.1402   3.4263   6.9453  11.9984  16.2396

          k =-0.2000-1.0000 0.0000 (   944 PWs)   bands (ev):

     1.9724   2.1548   5.8091   6.1427  10.8909  11.2549

          k = 0.6000-0.2000 1.0000 (   918 PWs)   bands (ev):

     0.5550   4.2825   4.3651   5.9723  14.0227  14.2125

          k = 0.5000-0.1000 0.9000 (   930 PWs)   bands (ev):

     1.8087   2.7693   4.4472   5.4490  14.1489  15.1231

          k =-0.4000-1.0000 0.0000 (   928 PWs)   bands (ev):

     2.4538   2.8940   4.1202   4.7796  13.9516  13.9818

     the Fermi energy is     3.6482 ev

!    total energy              =     -12.41981491 Ry
     estimated scf accuracy    <          1.2E-09 Ry
     smearing contrib. (-TS)   =       0.00097446 Ry
     internal energy E=F+TS    =     -12.42078937 Ry

     The total energy is F=E-TS. E is the sum of the following terms:
     one-electron contribution =       1.95817445 Ry
     hartree contribution      =       0.02529346 Ry
     xc contribution           =      -9.81939521 Ry
     ewald contribution        =      -4.58486207 Ry

     convergence has been achieved in   5 iterations

     Forces acting on atoms (cartesian axes, Ry/au):

     atom    1 type  1   force =     0.00000000    0.00000000    0.00000000

     Total force =     0.000000     Total SCF correction =     0.000000


     Computing stress (Cartesian axis) and pressure

          total   stress  (Ry/bohr**3)                   (kbar)     P=     -115.34
  -0.00078404  -0.00000000   0.00000000         -115.34       -0.00        0.00
  -0.00000000  -0.00078404  -0.00000000           -0.00     -115.34       -0.00
   0.00000000  -0.00000000  -0.00078404            0.00       -0.00     -115.34


     Writing all to output data dir /Users/zhy/Aluminum-from-First-Principles/convergence-runs/cutoff-kmesh/ecut-045.0-ry_k-10x10x10_degauss-0.050-ry/qe-out/aluminum_ecut-045p0-ry_k-10x10x10_degauss-0p050-ry.save/ :
     XML data file, charge density, pseudopotentials, collected wavefunctions

     init_run     :      0.30s CPU      0.30s WALL (       1 calls)
     electrons    :      0.84s CPU      0.86s WALL (       1 calls)
     forces       :      0.01s CPU      0.01s WALL (       1 calls)
     stress       :      0.04s CPU      0.04s WALL (       1 calls)

     Called by init_run:
     wfcinit      :      0.04s CPU      0.04s WALL (       1 calls)
     potinit      :      0.06s CPU      0.06s WALL (       1 calls)
     hinit0       :      0.16s CPU      0.16s WALL (       1 calls)

     Called by electrons:
     c_bands      :      0.66s CPU      0.68s WALL (       6 calls)
     sum_band     :      0.13s CPU      0.14s WALL (       6 calls)
     v_of_rho     :      0.04s CPU      0.04s WALL (       6 calls)
     newd         :      0.01s CPU      0.01s WALL (       6 calls)
     mix_rho      :      0.00s CPU      0.00s WALL (       6 calls)

     Called by c_bands:
     init_us_2    :      0.02s CPU      0.02s WALL (     705 calls)
     cegterg      :      0.65s CPU      0.67s WALL (     282 calls)

     Called by *egterg:
     cdiaghg      :      0.02s CPU      0.02s WALL (    1046 calls)
     h_psi        :      0.61s CPU      0.63s WALL (    1140 calls)
     s_psi        :      0.00s CPU      0.00s WALL (    1140 calls)
     g_psi        :      0.00s CPU      0.00s WALL (     811 calls)

     Called by h_psi:
     h_psi:calbec :      0.01s CPU      0.01s WALL (    1140 calls)
     vloc_psi     :      0.60s CPU      0.61s WALL (    1140 calls)
     add_vuspsi   :      0.00s CPU      0.00s WALL (    1140 calls)

     General routines
     calbec       :      0.01s CPU      0.01s WALL (    2221 calls)
     fft          :      0.15s CPU      0.15s WALL (     102 calls)
     ffts         :      0.05s CPU      0.05s WALL (      12 calls)
     fftw         :      0.65s CPU      0.66s WALL (   11270 calls)
     interpolate  :      0.05s CPU      0.06s WALL (       6 calls)

     Parallel routines

     PWSCF        :      1.20s CPU      1.24s WALL


   This run was terminated on:   1:12:48  23Sep2026            

=------------------------------------------------------------------------------=
   JOB DONE.
=------------------------------------------------------------------------------=
Note: The following floating-point exceptions are signalling: IEEE_INVALID_FLAG IEEE_DIVIDE_BY_ZERO IEEE_UNDERFLOW_FLAG
Note: The following floating-point exceptions are signalling: IEEE_UNDERFLOW_FLAG
