
     Program PWSCF v.7.6 starts on 22Sep2026 at 23:45:15 

     This program is part of the open-source Quantum ESPRESSO suite
     for quantum simulation of materials; please cite
         "P. Giannozzi et al., J. Phys.:Condens. Matter 21 395502 (2009);
         "P. Giannozzi et al., J. Phys.:Condens. Matter 29 465901 (2017);
         "P. Giannozzi et al., J. Chem. Phys. 152 154105 (2020);
          URL http://www.quantum-espresso.org", 
     in publications or presentations arising from this work. More details at
     http://www.quantum-espresso.org/quote

     Parallel version (MPI), running on     2 processors

     MPI processes distributed on     1 nodes
     0 MiB available memory on the printing compute node when the environment starts

     Reading input from Al.scf.inp

     Current dimensions of program PWSCF are:
     Max number of different atomic species (ntypx) = 10
     Max number of k-points (npk) =  40000
     Max angular momentum in pseudopotentials (lmaxx) =  4

     R & G space division:  proc/nbgrp/npool/nimage =       2
     Subspace diagonalization in iterative solution of the eigenvalue problem:
     a serial algorithm will be used


     Parallelization info
     --------------------
     sticks:   dense  smooth     PW     G-vecs:    dense   smooth      PW
     Min         219     111     42                 3115     1114     229
     Max         220     112     43                 3116     1115     230
     Sum         439     223     85                 6231     2229     459

     Using Slab Decomposition



     bravais-lattice index     =            2
     lattice parameter (alat)  =       9.0000  a.u.
     unit-cell volume          =     182.2500 (a.u.)^3
     number of atoms/cell      =            1
     number of atomic types    =            1
     number of electrons       =         3.00
     number of Kohn-Sham states=            6
     kinetic-energy cutoff     =      20.0000  Ry
     charge density cutoff     =     160.0000  Ry
     scf convergence threshold =      1.0E-08
     mixing beta               =       0.7000
     number of iterations used =            8  plain     mixing
     Exchange-correlation= SLA  PW   PBE  PBE
                           (   1   4   3   4   0   0   0)

     celldm(1)=   9.000000  celldm(2)=   0.000000  celldm(3)=   0.000000
     celldm(4)=   0.000000  celldm(5)=   0.000000  celldm(6)=   0.000000

     crystal axes: (cart. coord. in units of alat)
               a(1) = (  -0.500000   0.000000   0.500000 )  
               a(2) = (   0.000000   0.500000   0.500000 )  
               a(3) = (  -0.500000   0.500000   0.000000 )  

     reciprocal axes: (cart. coord. in units 2 pi/alat)
               b(1) = ( -1.000000 -1.000000  1.000000 )  
               b(2) = (  1.000000  1.000000  1.000000 )  
               b(3) = ( -1.000000  1.000000 -1.000000 )  


     PseudoPot. # 1 for Al read from file:
     /Users/zhy/Aluminum-from-First-Principles/Al.pbe-n-van.UPF
     MD5 check sum: cbc97ad259b400557db688b98a6ada97
     Pseudo is Ultrasoft + core correction, Zval =  3.0
     Generated by new atomic code, or converted to UPF format
     Using radial grid of  893 points,  2 beta functions with: 
                l(1) =   0
                l(2) =   1
     Q(r) pseudized with  8 coefficients,  rinner =    0.900   0.900   0.900


     atomic species   valence    mass     pseudopotential
     Al                3.00    26.98200     Al( 1.00)

     48 Sym. Ops., with inversion, found



   Cartesian axes

     site n.     atom                  positions (alat units)
         1        Al     tau(   1) = (   0.0000000   0.0000000   0.0000000  )

     number of k points=    29  Methfessel-Paxton smearing, width (Ry)=  0.0500
                       cart. coord. in units 2pi/alat
        k(    1) = (   0.0000000   0.0000000   0.0000000), wk =   0.0039062
        k(    2) = (  -0.1250000   0.1250000  -0.1250000), wk =   0.0312500
        k(    3) = (  -0.2500000   0.2500000  -0.2500000), wk =   0.0312500
        k(    4) = (  -0.3750000   0.3750000  -0.3750000), wk =   0.0312500
        k(    5) = (   0.5000000  -0.5000000   0.5000000), wk =   0.0156250
        k(    6) = (   0.0000000   0.2500000   0.0000000), wk =   0.0234375
        k(    7) = (  -0.1250000   0.3750000  -0.1250000), wk =   0.0937500
        k(    8) = (  -0.2500000   0.5000000  -0.2500000), wk =   0.0937500
        k(    9) = (   0.6250000  -0.3750000   0.6250000), wk =   0.0937500
        k(   10) = (   0.5000000  -0.2500000   0.5000000), wk =   0.0937500
        k(   11) = (   0.3750000  -0.1250000   0.3750000), wk =   0.0937500
        k(   12) = (   0.2500000   0.0000000   0.2500000), wk =   0.0468750
        k(   13) = (   0.0000000   0.5000000   0.0000000), wk =   0.0234375
        k(   14) = (  -0.1250000   0.6250000  -0.1250000), wk =   0.0937500
        k(   15) = (   0.7500000  -0.2500000   0.7500000), wk =   0.0937500
        k(   16) = (   0.6250000  -0.1250000   0.6250000), wk =   0.0937500
        k(   17) = (   0.5000000   0.0000000   0.5000000), wk =   0.0468750
        k(   18) = (   0.0000000   0.7500000   0.0000000), wk =   0.0234375
        k(   19) = (   0.8750000  -0.1250000   0.8750000), wk =   0.0937500
        k(   20) = (   0.7500000   0.0000000   0.7500000), wk =   0.0468750
        k(   21) = (   0.0000000  -1.0000000   0.0000000), wk =   0.0117188
        k(   22) = (  -0.2500000   0.5000000   0.0000000), wk =   0.0937500
        k(   23) = (   0.6250000  -0.3750000   0.8750000), wk =   0.1875000
        k(   24) = (   0.5000000  -0.2500000   0.7500000), wk =   0.0937500
        k(   25) = (   0.7500000  -0.2500000   1.0000000), wk =   0.0937500
        k(   26) = (   0.6250000  -0.1250000   0.8750000), wk =   0.1875000
        k(   27) = (   0.5000000   0.0000000   0.7500000), wk =   0.0937500
        k(   28) = (  -0.2500000  -1.0000000   0.0000000), wk =   0.0468750
        k(   29) = (  -0.5000000  -1.0000000   0.0000000), wk =   0.0234375

     Dense  grid:     6231 G-vectors     FFT dimensions: (  25,  25,  25)

     Smooth grid:     2229 G-vectors     FFT dimensions: (  20,  20,  20)

     Estimated max dynamical RAM per process >       3.45 MB

     Estimated total dynamical RAM >       6.90 MB

     Initial potential from superposition of free atoms

     starting charge       2.9975, renormalised to       3.0000
     Starting wfcs are    4 randomized atomic wfcs +    2 random wfcs

     total cpu time spent up to now is        0.2 secs

     Self-consistent Calculation

     iteration #  1     ecut=    20.00 Ry     beta= 0.70
     Davidson diagonalization with overlap
     ethr =  1.00E-02,  avg # of iterations =  5.1

     Threshold (ethr) on eigenvalues was too large:
     Diagonalizing with lowered threshold

     Davidson diagonalization with overlap
     ethr =  1.91E-04,  avg # of iterations =  2.7

     total cpu time spent up to now is        0.2 secs

     total energy              =     -12.41448690 Ry
     estimated scf accuracy    <       0.00569945 Ry

     iteration #  2     ecut=    20.00 Ry     beta= 0.70
     Davidson diagonalization with overlap
     ethr =  1.90E-04,  avg # of iterations =  1.0

     total cpu time spent up to now is        0.3 secs

     total energy              =     -12.41460485 Ry
     estimated scf accuracy    <       0.00026433 Ry

     iteration #  3     ecut=    20.00 Ry     beta= 0.70
     Davidson diagonalization with overlap
     ethr =  8.81E-06,  avg # of iterations =  3.4

     total cpu time spent up to now is        0.3 secs

     total energy              =     -12.41462938 Ry
     estimated scf accuracy    <       0.00000086 Ry

     iteration #  4     ecut=    20.00 Ry     beta= 0.70
     Davidson diagonalization with overlap
     ethr =  2.86E-08,  avg # of iterations =  3.1

     total cpu time spent up to now is        0.3 secs

     total energy              =     -12.41463050 Ry
     estimated scf accuracy    <       0.00000005 Ry

     iteration #  5     ecut=    20.00 Ry     beta= 0.70
     Davidson diagonalization with overlap
     ethr =  1.82E-09,  avg # of iterations =  1.4

     total cpu time spent up to now is        0.3 secs

     End of self-consistent calculation

          k = 0.0000 0.0000 0.0000 (   283 PWs)   bands (ev):

    -4.4974  12.5161  12.5161  12.5161  13.9750  13.9751

          k =-0.1250 0.1250-0.1250 (   274 PWs)   bands (ev):

    -4.1938   9.7362  11.8775  11.8775  14.2426  14.9157

          k =-0.2500 0.2500-0.2500 (   280 PWs)   bands (ev):

    -3.2879   6.2044  11.2259  11.2259  13.8881  14.7930

          k =-0.3750 0.3750-0.3750 (   281 PWs)   bands (ev):

    -1.8019   3.0691  10.9470  10.9470  13.6585  13.7208

          k = 0.5000-0.5000 0.5000 (   272 PWs)   bands (ev):

    -0.1745   0.8853  10.9081  10.9081  13.1901  13.7293

          k = 0.0000 0.2500 0.0000 (   279 PWs)   bands (ev):

    -4.0927  10.6965  10.6965  11.4022  12.2897  15.2985

          k =-0.1250 0.3750-0.1250 (   287 PWs)   bands (ev):

    -3.3875   7.5735   9.9020  10.6905  12.5564  14.2077

          k =-0.2500 0.5000-0.2500 (   275 PWs)   bands (ev):

    -2.0907   4.3049   9.6127   9.7502  11.8710  15.5460

          k = 0.6250-0.3750 0.6250 (   271 PWs)   bands (ev):

    -0.3026   1.5969   8.8638   9.8316  11.8830  14.7988

          k = 0.5000-0.2500 0.5000 (   271 PWs)   bands (ev):

    -0.9286   2.4091   8.3251  10.5141  12.6228  14.3091

          k = 0.3750-0.1250 0.3750 (   278 PWs)   bands (ev):

    -2.5874   5.3519   8.2744  11.5281  13.9349  14.4791

          k = 0.2500 0.0000 0.2500 (   281 PWs)   bands (ev):

    -3.6894   8.7512   8.7513  12.4297  14.7613  15.0082

          k = 0.0000 0.5000 0.0000 (   290 PWs)   bands (ev):

    -2.8843   8.8439   8.9366   8.9366  10.3873  11.6465

          k =-0.1250 0.6250-0.1250 (   278 PWs)   bands (ev):

    -1.7857   6.0030   7.5130   8.4848  10.3564  12.5249

          k = 0.7500-0.2500 0.7500 (   271 PWs)   bands (ev):

    -0.1326   3.1453   6.1678   8.5635  10.3950  15.3027

          k = 0.6250-0.1250 0.6250 (   273 PWs)   bands (ev):

     0.4794   2.3654   5.3354   9.1662  11.0424  16.8829

          k = 0.5000 0.0000 0.5000 (   273 PWs)   bands (ev):

    -1.2995   5.0055   5.1125  10.2461  12.2670  16.4273

          k = 0.0000 0.7500 0.0000 (   274 PWs)   bands (ev):

    -0.8883   5.2495   7.8590   7.8590   9.2026  10.0057

          k = 0.8750-0.1250 0.8750 (   274 PWs)   bands (ev):

     0.5790   3.6196   5.4994   7.7664   9.4660  11.7597

          k = 0.7500 0.0000 0.7500 (   272 PWs)   bands (ev):

     2.0216   2.7025   3.4066   8.2091   9.9685  15.0142

          k = 0.0000-1.0000 0.0000 (   286 PWs)   bands (ev):

     1.7804   1.9291   7.4925   7.4925   8.7993   9.5383

          k =-0.2500 0.5000 0.0000 (   278 PWs)   bands (ev):

    -2.4855   6.8960   6.9135   9.8466  13.1506  13.4835

          k = 0.6250-0.3750 0.8750 (   271 PWs)   bands (ev):

    -1.0056   3.8221   6.7494   8.4731  13.1164  14.6348

          k = 0.5000-0.2500 0.7500 (   278 PWs)   bands (ev):

     0.6207   1.6479   6.8823   7.7993  13.2105  14.1237

          k = 0.7500-0.2500 1.0000 (   275 PWs)   bands (ev):

    -0.5020   5.2225   5.7572   6.5312  12.0428  12.3527

          k = 0.6250-0.1250 0.8750 (   271 PWs)   bands (ev):

     1.2692   3.0404   4.5771   6.3009  12.4496  15.1791

          k = 0.5000 0.0000 0.7500 (   274 PWs)   bands (ev):

     0.6241   3.8566   3.9686   7.0920  13.2045  16.1173

          k =-0.2500-1.0000 0.0000 (   272 PWs)   bands (ev):

     2.0948   2.3168   5.3775   5.7699  11.6663  11.9802

          k =-0.5000-1.0000 0.0000 (   264 PWs)   bands (ev):

     2.5949   3.4730   3.4730   4.5659  14.9059  15.7721

     the Fermi energy is     3.6261 ev

!    total energy              =     -12.41463051 Ry
     estimated scf accuracy    <          2.3E-09 Ry
     smearing contrib. (-TS)   =      -0.00100821 Ry
     internal energy E=F+TS    =     -12.41362230 Ry

     The total energy is F=E-TS. E is the sum of the following terms:
     one-electron contribution =       1.95868556 Ry
     hartree contribution      =       0.02470661 Ry
     xc contribution           =      -9.81215234 Ry
     ewald contribution        =      -4.58486213 Ry

     convergence has been achieved in   5 iterations

     Forces acting on atoms (cartesian axes, Ry/au):

     atom    1 type  1   force =     0.00000000    0.00000000    0.00000000

     Total force =     0.000000     Total SCF correction =     0.000000


     Computing stress (Cartesian axis) and pressure

          total   stress  (Ry/bohr**3)                   (kbar)     P=     -116.77
  -0.00079378  -0.00000000  -0.00000000         -116.77       -0.00       -0.00
   0.00000000  -0.00079378  -0.00000000            0.00     -116.77       -0.00
  -0.00000000  -0.00000000  -0.00079378           -0.00       -0.00     -116.77


     Writing all to output data dir /Users/zhy/Aluminum-from-First-Principles/convergence-runs/cutoff-kmesh/ecut-020.0-ry_k-08x08x08_degauss-0.050-ry/qe-out/aluminum_ecut-020p0-ry_k-08x08x08_degauss-0p050-ry.save/ :
     XML data file, charge density, pseudopotentials, collected wavefunctions

     init_run     :      0.16s CPU      0.16s WALL (       1 calls)
     electrons    :      0.15s CPU      0.16s WALL (       1 calls)
     forces       :      0.00s CPU      0.00s WALL (       1 calls)
     stress       :      0.01s CPU      0.01s WALL (       1 calls)

     Called by init_run:
     wfcinit      :      0.02s CPU      0.02s WALL (       1 calls)
     potinit      :      0.08s CPU      0.09s WALL (       1 calls)
     hinit0       :      0.05s CPU      0.05s WALL (       1 calls)

     Called by electrons:
     c_bands      :      0.12s CPU      0.13s WALL (       6 calls)
     sum_band     :      0.02s CPU      0.03s WALL (       6 calls)
     v_of_rho     :      0.01s CPU      0.01s WALL (       6 calls)
     newd         :      0.00s CPU      0.00s WALL (       6 calls)
     mix_rho      :      0.00s CPU      0.00s WALL (       6 calls)

     Called by c_bands:
     init_us_2    :      0.00s CPU      0.00s WALL (     435 calls)
     cegterg      :      0.11s CPU      0.12s WALL (     174 calls)

     Called by *egterg:
     cdiaghg      :      0.01s CPU      0.01s WALL (     627 calls)
     h_psi        :      0.11s CPU      0.11s WALL (     685 calls)
     s_psi        :      0.00s CPU      0.00s WALL (     685 calls)
     g_psi        :      0.00s CPU      0.00s WALL (     482 calls)

     Called by h_psi:
     h_psi:calbec :      0.00s CPU      0.00s WALL (     685 calls)
     vloc_psi     :      0.10s CPU      0.11s WALL (     685 calls)
     add_vuspsi   :      0.00s CPU      0.00s WALL (     685 calls)

     General routines
     calbec       :      0.00s CPU      0.00s WALL (    1352 calls)
     fft          :      0.04s CPU      0.04s WALL (     102 calls)
     ffts         :      0.08s CPU      0.08s WALL (      12 calls)
     fftw         :      0.10s CPU      0.11s WALL (    6770 calls)
     interpolate  :      0.08s CPU      0.08s WALL (       6 calls)

     Parallel routines

     PWSCF        :      0.34s CPU      0.36s WALL


   This run was terminated on:  23:45:16  22Sep2026            

=------------------------------------------------------------------------------=
   JOB DONE.
=------------------------------------------------------------------------------=
Note: The following floating-point exceptions are signalling: IEEE_INVALID_FLAG IEEE_DIVIDE_BY_ZERO IEEE_UNDERFLOW_FLAG
Note: The following floating-point exceptions are signalling: IEEE_UNDERFLOW_FLAG
