
     Program PWSCF v.7.6 starts on 26Sep2026 at  2:15:48 

     This program is part of the open-source Quantum ESPRESSO suite
     for quantum simulation of materials; please cite
         "P. Giannozzi et al., J. Phys.:Condens. Matter 21 395502 (2009);
         "P. Giannozzi et al., J. Phys.:Condens. Matter 29 465901 (2017);
         "P. Giannozzi et al., J. Chem. Phys. 152 154105 (2020);
          URL http://www.quantum-espresso.org", 
     in publications or presentations arising from this work. More details at
     http://www.quantum-espresso.org/quote

     Parallel version (MPI), running on     2 processors

     MPI processes distributed on     1 nodes
     0 MiB available memory on the printing compute node when the environment starts

     Reading input from Al.band.inp

     Current dimensions of program PWSCF are:
     Max number of different atomic species (ntypx) = 10
     Max number of k-points (npk) =  40000
     Max angular momentum in pseudopotentials (lmaxx) =  4

     Atomic positions and unit cell read from directory:
     /Users/zhy/Aluminum-from-First-Principles/qe-out/a5-bands/aluminum_a5_bands.save/


     R & G space division:  proc/nbgrp/npool/nimage =       2
     Subspace diagonalization in iterative solution of the eigenvalue problem:
     a serial algorithm will be used


     Parallelization info
     --------------------
     sticks:   dense  smooth     PW     G-vecs:    dense   smooth      PW
     Min         279     141     45                 4327     1559     304
     Max         280     142     46                 4330     1560     305
     Sum         559     283     91                 8657     3119     609

     Using Slab Decomposition



     bravais-lattice index     =            2
     lattice parameter (alat)  =       7.6061  a.u.
     unit-cell volume          =     110.0075 (a.u.)^3
     number of atoms/cell      =            1
     number of atomic types    =            1
     number of electrons       =         3.00
     number of Kohn-Sham states=            8
     kinetic-energy cutoff     =      35.0000  Ry
     charge density cutoff     =     280.0000  Ry
     Exchange-correlation= SLA  PW   PBE  PBE
                           (   1   4   3   4   0   0   0)

     celldm(1)=   7.606077  celldm(2)=   0.000000  celldm(3)=   0.000000
     celldm(4)=   0.000000  celldm(5)=   0.000000  celldm(6)=   0.000000

     crystal axes: (cart. coord. in units of alat)
               a(1) = (  -0.500000   0.000000   0.500000 )  
               a(2) = (   0.000000   0.500000   0.500000 )  
               a(3) = (  -0.500000   0.500000   0.000000 )  

     reciprocal axes: (cart. coord. in units 2 pi/alat)
               b(1) = ( -1.000000 -1.000000  1.000000 )  
               b(2) = (  1.000000  1.000000  1.000000 )  
               b(3) = ( -1.000000  1.000000 -1.000000 )  


     PseudoPot. # 1 for Al read from file:
     /Users/zhy/Aluminum-from-First-Principles/Al.pbe-n-van.UPF
     MD5 check sum: cbc97ad259b400557db688b98a6ada97
     Pseudo is Ultrasoft + core correction, Zval =  3.0
     Generated by new atomic code, or converted to UPF format
     Using radial grid of  893 points,  2 beta functions with: 
                l(1) =   0
                l(2) =   1
     Q(r) pseudized with  8 coefficients,  rinner =    0.900   0.900   0.900


     atomic species   valence    mass     pseudopotential
     Al                3.00    26.98200     Al( 1.00)

     No symmetry found


                                    s                        frac. trans.

      isym =  1     identity                                     

 cryst.   s( 1) = (     1          0          0      )
                  (     0          1          0      )
                  (     0          0          1      )

 cart.    s( 1) = (  1.0000000  0.0000000  0.0000000 )
                  (  0.0000000  1.0000000  0.0000000 )
                  (  0.0000000  0.0000000  1.0000000 )


     point group C_1 (1)    
     there are  1 classes
     the character table:

       E    
A      1.00

     the symmetry operations in each class and the name of the first element:

     E        1
          identity                                               

   Cartesian axes

     site n.     atom                  positions (alat units)
         1        Al     tau(   1) = (   0.0000000   0.0000000   0.0000000  )

   Crystallographic axes

     site n.     atom                  positions (cryst. coord.)
         1        Al     tau(   1) = (  0.0000000  0.0000000  0.0000000  )

     number of k points=   240  Methfessel-Paxton smearing, width (Ry)=  0.0100
                       cart. coord. in units 2pi/alat
        k(    1) = (   0.0000000   0.0000000   0.0000000), wk =   0.0083333
        k(    2) = (   0.0000000   0.0256410   0.0000000), wk =   0.0083333
        k(    3) = (   0.0000000   0.0512821   0.0000000), wk =   0.0083333
        k(    4) = (   0.0000000   0.0769231   0.0000000), wk =   0.0083333
        k(    5) = (   0.0000000   0.1025641   0.0000000), wk =   0.0083333
        k(    6) = (   0.0000000   0.1282051   0.0000000), wk =   0.0083333
        k(    7) = (   0.0000000   0.1538462   0.0000000), wk =   0.0083333
        k(    8) = (   0.0000000   0.1794872   0.0000000), wk =   0.0083333
        k(    9) = (   0.0000000   0.2051282   0.0000000), wk =   0.0083333
        k(   10) = (   0.0000000   0.2307692   0.0000000), wk =   0.0083333
        k(   11) = (   0.0000000   0.2564103   0.0000000), wk =   0.0083333
        k(   12) = (   0.0000000   0.2820513   0.0000000), wk =   0.0083333
        k(   13) = (   0.0000000   0.3076923   0.0000000), wk =   0.0083333
        k(   14) = (   0.0000000   0.3333333   0.0000000), wk =   0.0083333
        k(   15) = (   0.0000000   0.3589744   0.0000000), wk =   0.0083333
        k(   16) = (   0.0000000   0.3846154   0.0000000), wk =   0.0083333
        k(   17) = (   0.0000000   0.4102564   0.0000000), wk =   0.0083333
        k(   18) = (   0.0000000   0.4358974   0.0000000), wk =   0.0083333
        k(   19) = (   0.0000000   0.4615385   0.0000000), wk =   0.0083333
        k(   20) = (   0.0000000   0.4871795   0.0000000), wk =   0.0083333
        k(   21) = (   0.0000000   0.5128205   0.0000000), wk =   0.0083333
        k(   22) = (   0.0000000   0.5384615   0.0000000), wk =   0.0083333
        k(   23) = (   0.0000000   0.5641026   0.0000000), wk =   0.0083333
        k(   24) = (   0.0000000   0.5897436   0.0000000), wk =   0.0083333
        k(   25) = (   0.0000000   0.6153846   0.0000000), wk =   0.0083333
        k(   26) = (   0.0000000   0.6410256   0.0000000), wk =   0.0083333
        k(   27) = (   0.0000000   0.6666667   0.0000000), wk =   0.0083333
        k(   28) = (   0.0000000   0.6923077   0.0000000), wk =   0.0083333
        k(   29) = (   0.0000000   0.7179487   0.0000000), wk =   0.0083333
        k(   30) = (   0.0000000   0.7435897   0.0000000), wk =   0.0083333
        k(   31) = (   0.0000000   0.7692308   0.0000000), wk =   0.0083333
        k(   32) = (   0.0000000   0.7948718   0.0000000), wk =   0.0083333
        k(   33) = (   0.0000000   0.8205128   0.0000000), wk =   0.0083333
        k(   34) = (   0.0000000   0.8461538   0.0000000), wk =   0.0083333
        k(   35) = (   0.0000000   0.8717949   0.0000000), wk =   0.0083333
        k(   36) = (   0.0000000   0.8974359   0.0000000), wk =   0.0083333
        k(   37) = (   0.0000000   0.9230769   0.0000000), wk =   0.0083333
        k(   38) = (   0.0000000   0.9487179   0.0000000), wk =   0.0083333
        k(   39) = (   0.0000000   0.9743590   0.0000000), wk =   0.0083333
        k(   40) = (   0.0000000   1.0000000   0.0000000), wk =   0.0083333
        k(   41) = (   0.0250000   1.0000000   0.0000000), wk =   0.0083333
        k(   42) = (   0.0500000   1.0000000   0.0000000), wk =   0.0083333
        k(   43) = (   0.0750000   1.0000000   0.0000000), wk =   0.0083333
        k(   44) = (   0.1000000   1.0000000   0.0000000), wk =   0.0083333
        k(   45) = (   0.1250000   1.0000000   0.0000000), wk =   0.0083333
        k(   46) = (   0.1500000   1.0000000   0.0000000), wk =   0.0083333
        k(   47) = (   0.1750000   1.0000000   0.0000000), wk =   0.0083333
        k(   48) = (   0.2000000   1.0000000   0.0000000), wk =   0.0083333
        k(   49) = (   0.2250000   1.0000000   0.0000000), wk =   0.0083333
        k(   50) = (   0.2500000   1.0000000   0.0000000), wk =   0.0083333
        k(   51) = (   0.2750000   1.0000000   0.0000000), wk =   0.0083333
        k(   52) = (   0.3000000   1.0000000   0.0000000), wk =   0.0083333
        k(   53) = (   0.3250000   1.0000000   0.0000000), wk =   0.0083333
        k(   54) = (   0.3500000   1.0000000   0.0000000), wk =   0.0083333
        k(   55) = (   0.3750000   1.0000000   0.0000000), wk =   0.0083333
        k(   56) = (   0.4000000   1.0000000   0.0000000), wk =   0.0083333
        k(   57) = (   0.4250000   1.0000000   0.0000000), wk =   0.0083333
        k(   58) = (   0.4500000   1.0000000   0.0000000), wk =   0.0083333
        k(   59) = (   0.4750000   1.0000000   0.0000000), wk =   0.0083333
        k(   60) = (   0.5000000   1.0000000   0.0000000), wk =   0.0083333
        k(   61) = (   0.5178571   0.9821429   0.0000000), wk =   0.0083333
        k(   62) = (   0.5357143   0.9642857  -0.0000000), wk =   0.0083333
        k(   63) = (   0.5535714   0.9464286   0.0000000), wk =   0.0083333
        k(   64) = (   0.5714286   0.9285714  -0.0000000), wk =   0.0083333
        k(   65) = (   0.5892857   0.9107143   0.0000000), wk =   0.0083333
        k(   66) = (   0.6071429   0.8928571  -0.0000000), wk =   0.0083333
        k(   67) = (   0.6250000   0.8750000   0.0000000), wk =   0.0083333
        k(   68) = (   0.6428571   0.8571429   0.0000000), wk =   0.0083333
        k(   69) = (   0.6607143   0.8392857  -0.0000000), wk =   0.0083333
        k(   70) = (   0.6785714   0.8214286   0.0000000), wk =   0.0083333
        k(   71) = (   0.6964286   0.8035714  -0.0000000), wk =   0.0083333
        k(   72) = (   0.7142857   0.7857143   0.0000000), wk =   0.0083333
        k(   73) = (   0.7321429   0.7678571  -0.0000000), wk =   0.0083333
        k(   74) = (   0.7500000   0.7500000   0.0000000), wk =   0.0083333
        k(   75) = (   0.7321429   0.7321429   0.0000000), wk =   0.0083333
        k(   76) = (   0.7142857   0.7142857   0.0000000), wk =   0.0083333
        k(   77) = (   0.6964286   0.6964286   0.0000000), wk =   0.0083333
        k(   78) = (   0.6785714   0.6785714   0.0000000), wk =   0.0083333
        k(   79) = (   0.6607143   0.6607143   0.0000000), wk =   0.0083333
        k(   80) = (   0.6428571   0.6428571   0.0000000), wk =   0.0083333
        k(   81) = (   0.6250000   0.6250000   0.0000000), wk =   0.0083333
        k(   82) = (   0.6071429   0.6071429   0.0000000), wk =   0.0083333
        k(   83) = (   0.5892857   0.5892857   0.0000000), wk =   0.0083333
        k(   84) = (   0.5714286   0.5714286   0.0000000), wk =   0.0083333
        k(   85) = (   0.5535714   0.5535714   0.0000000), wk =   0.0083333
        k(   86) = (   0.5357143   0.5357143   0.0000000), wk =   0.0083333
        k(   87) = (   0.5178571   0.5178571   0.0000000), wk =   0.0083333
        k(   88) = (   0.5000000   0.5000000   0.0000000), wk =   0.0083333
        k(   89) = (   0.4821429   0.4821429   0.0000000), wk =   0.0083333
        k(   90) = (   0.4642857   0.4642857   0.0000000), wk =   0.0083333
        k(   91) = (   0.4464286   0.4464286   0.0000000), wk =   0.0083333
        k(   92) = (   0.4285714   0.4285714   0.0000000), wk =   0.0083333
        k(   93) = (   0.4107143   0.4107143   0.0000000), wk =   0.0083333
        k(   94) = (   0.3928571   0.3928571   0.0000000), wk =   0.0083333
        k(   95) = (   0.3750000   0.3750000   0.0000000), wk =   0.0083333
        k(   96) = (   0.3571429   0.3571429   0.0000000), wk =   0.0083333
        k(   97) = (   0.3392857   0.3392857   0.0000000), wk =   0.0083333
        k(   98) = (   0.3214286   0.3214286   0.0000000), wk =   0.0083333
        k(   99) = (   0.3035714   0.3035714   0.0000000), wk =   0.0083333
        k(  100) = (   0.2857143   0.2857143   0.0000000), wk =   0.0083333
        k(  101) = (   0.2678571   0.2678571   0.0000000), wk =   0.0083333
        k(  102) = (   0.2500000   0.2500000   0.0000000), wk =   0.0083333
        k(  103) = (   0.2321429   0.2321429   0.0000000), wk =   0.0083333
        k(  104) = (   0.2142857   0.2142857   0.0000000), wk =   0.0083333
        k(  105) = (   0.1964286   0.1964286   0.0000000), wk =   0.0083333
        k(  106) = (   0.1785714   0.1785714   0.0000000), wk =   0.0083333
        k(  107) = (   0.1607143   0.1607143   0.0000000), wk =   0.0083333
        k(  108) = (   0.1428571   0.1428571   0.0000000), wk =   0.0083333
        k(  109) = (   0.1250000   0.1250000   0.0000000), wk =   0.0083333
        k(  110) = (   0.1071429   0.1071429   0.0000000), wk =   0.0083333
        k(  111) = (   0.0892857   0.0892857   0.0000000), wk =   0.0083333
        k(  112) = (   0.0714286   0.0714286   0.0000000), wk =   0.0083333
        k(  113) = (   0.0535714   0.0535714   0.0000000), wk =   0.0083333
        k(  114) = (   0.0357143   0.0357143   0.0000000), wk =   0.0083333
        k(  115) = (   0.0178571   0.0178571   0.0000000), wk =   0.0083333
        k(  116) = (   0.0000000   0.0000000   0.0000000), wk =   0.0083333
        k(  117) = (   0.0147059   0.0147059   0.0147059), wk =   0.0083333
        k(  118) = (   0.0294118   0.0294118   0.0294118), wk =   0.0083333
        k(  119) = (   0.0441176   0.0441176   0.0441176), wk =   0.0083333
        k(  120) = (   0.0588235   0.0588235   0.0588235), wk =   0.0083333
        k(  121) = (   0.0735294   0.0735294   0.0735294), wk =   0.0083333
        k(  122) = (   0.0882353   0.0882353   0.0882353), wk =   0.0083333
        k(  123) = (   0.1029412   0.1029412   0.1029412), wk =   0.0083333
        k(  124) = (   0.1176471   0.1176471   0.1176471), wk =   0.0083333
        k(  125) = (   0.1323529   0.1323529   0.1323529), wk =   0.0083333
        k(  126) = (   0.1470588   0.1470588   0.1470588), wk =   0.0083333
        k(  127) = (   0.1617647   0.1617647   0.1617647), wk =   0.0083333
        k(  128) = (   0.1764706   0.1764706   0.1764706), wk =   0.0083333
        k(  129) = (   0.1911765   0.1911765   0.1911765), wk =   0.0083333
        k(  130) = (   0.2058824   0.2058824   0.2058824), wk =   0.0083333
        k(  131) = (   0.2205882   0.2205882   0.2205882), wk =   0.0083333
        k(  132) = (   0.2352941   0.2352941   0.2352941), wk =   0.0083333
        k(  133) = (   0.2500000   0.2500000   0.2500000), wk =   0.0083333
        k(  134) = (   0.2647059   0.2647059   0.2647059), wk =   0.0083333
        k(  135) = (   0.2794118   0.2794118   0.2794118), wk =   0.0083333
        k(  136) = (   0.2941176   0.2941176   0.2941176), wk =   0.0083333
        k(  137) = (   0.3088235   0.3088235   0.3088235), wk =   0.0083333
        k(  138) = (   0.3235294   0.3235294   0.3235294), wk =   0.0083333
        k(  139) = (   0.3382353   0.3382353   0.3382353), wk =   0.0083333
        k(  140) = (   0.3529412   0.3529412   0.3529412), wk =   0.0083333
        k(  141) = (   0.3676471   0.3676471   0.3676471), wk =   0.0083333
        k(  142) = (   0.3823529   0.3823529   0.3823529), wk =   0.0083333
        k(  143) = (   0.3970588   0.3970588   0.3970588), wk =   0.0083333
        k(  144) = (   0.4117647   0.4117647   0.4117647), wk =   0.0083333
        k(  145) = (   0.4264706   0.4264706   0.4264706), wk =   0.0083333
        k(  146) = (   0.4411765   0.4411765   0.4411765), wk =   0.0083333
        k(  147) = (   0.4558824   0.4558824   0.4558824), wk =   0.0083333
        k(  148) = (   0.4705882   0.4705882   0.4705882), wk =   0.0083333
        k(  149) = (   0.4852941   0.4852941   0.4852941), wk =   0.0083333
        k(  150) = (   0.5000000   0.5000000   0.5000000), wk =   0.0083333
        k(  151) = (   0.4895833   0.5208333   0.4895833), wk =   0.0083333
        k(  152) = (   0.4791667   0.5416667   0.4791667), wk =   0.0083333
        k(  153) = (   0.4687500   0.5625000   0.4687500), wk =   0.0083333
        k(  154) = (   0.4583333   0.5833333   0.4583333), wk =   0.0083333
        k(  155) = (   0.4479167   0.6041667   0.4479167), wk =   0.0083333
        k(  156) = (   0.4375000   0.6250000   0.4375000), wk =   0.0083333
        k(  157) = (   0.4270833   0.6458333   0.4270833), wk =   0.0083333
        k(  158) = (   0.4166667   0.6666667   0.4166667), wk =   0.0083333
        k(  159) = (   0.4062500   0.6875000   0.4062500), wk =   0.0083333
        k(  160) = (   0.3958333   0.7083333   0.3958333), wk =   0.0083333
        k(  161) = (   0.3854167   0.7291667   0.3854167), wk =   0.0083333
        k(  162) = (   0.3750000   0.7500000   0.3750000), wk =   0.0083333
        k(  163) = (   0.3645833   0.7708333   0.3645833), wk =   0.0083333
        k(  164) = (   0.3541667   0.7916667   0.3541667), wk =   0.0083333
        k(  165) = (   0.3437500   0.8125000   0.3437500), wk =   0.0083333
        k(  166) = (   0.3333333   0.8333333   0.3333333), wk =   0.0083333
        k(  167) = (   0.3229167   0.8541667   0.3229167), wk =   0.0083333
        k(  168) = (   0.3125000   0.8750000   0.3125000), wk =   0.0083333
        k(  169) = (   0.3020833   0.8958333   0.3020833), wk =   0.0083333
        k(  170) = (   0.2916667   0.9166667   0.2916667), wk =   0.0083333
        k(  171) = (   0.2812500   0.9375000   0.2812500), wk =   0.0083333
        k(  172) = (   0.2708333   0.9583333   0.2708333), wk =   0.0083333
        k(  173) = (   0.2604167   0.9791667   0.2604167), wk =   0.0083333
        k(  174) = (   0.2500000   1.0000000   0.2500000), wk =   0.0083333
        k(  175) = (   0.2678571   1.0000000   0.2321429), wk =   0.0083333
        k(  176) = (   0.2857143   1.0000000   0.2142857), wk =   0.0083333
        k(  177) = (   0.3035714   1.0000000   0.1964286), wk =   0.0083333
        k(  178) = (   0.3214286   1.0000000   0.1785714), wk =   0.0083333
        k(  179) = (   0.3392857   1.0000000   0.1607143), wk =   0.0083333
        k(  180) = (   0.3571429   1.0000000   0.1428571), wk =   0.0083333
        k(  181) = (   0.3750000   1.0000000   0.1250000), wk =   0.0083333
        k(  182) = (   0.3928571   1.0000000   0.1071429), wk =   0.0083333
        k(  183) = (   0.4107143   1.0000000   0.0892857), wk =   0.0083333
        k(  184) = (   0.4285714   1.0000000   0.0714286), wk =   0.0083333
        k(  185) = (   0.4464286   1.0000000   0.0535714), wk =   0.0083333
        k(  186) = (   0.4642857   1.0000000   0.0357143), wk =   0.0083333
        k(  187) = (   0.4821429   1.0000000   0.0178571), wk =   0.0083333
        k(  188) = (   0.5000000   1.0000000   0.0000000), wk =   0.0083333
        k(  189) = (   0.5000000   0.9821429   0.0178571), wk =   0.0083333
        k(  190) = (   0.5000000   0.9642857   0.0357143), wk =   0.0083333
        k(  191) = (   0.5000000   0.9464286   0.0535714), wk =   0.0083333
        k(  192) = (   0.5000000   0.9285714   0.0714286), wk =   0.0083333
        k(  193) = (   0.5000000   0.9107143   0.0892857), wk =   0.0083333
        k(  194) = (   0.5000000   0.8928571   0.1071429), wk =   0.0083333
        k(  195) = (   0.5000000   0.8750000   0.1250000), wk =   0.0083333
        k(  196) = (   0.5000000   0.8571429   0.1428571), wk =   0.0083333
        k(  197) = (   0.5000000   0.8392857   0.1607143), wk =   0.0083333
        k(  198) = (   0.5000000   0.8214286   0.1785714), wk =   0.0083333
        k(  199) = (   0.5000000   0.8035714   0.1964286), wk =   0.0083333
        k(  200) = (   0.5000000   0.7857143   0.2142857), wk =   0.0083333
        k(  201) = (   0.5000000   0.7678571   0.2321429), wk =   0.0083333
        k(  202) = (   0.5000000   0.7500000   0.2500000), wk =   0.0083333
        k(  203) = (   0.5000000   0.7321429   0.2678571), wk =   0.0083333
        k(  204) = (   0.5000000   0.7142857   0.2857143), wk =   0.0083333
        k(  205) = (   0.5000000   0.6964286   0.3035714), wk =   0.0083333
        k(  206) = (   0.5000000   0.6785714   0.3214286), wk =   0.0083333
        k(  207) = (   0.5000000   0.6607143   0.3392857), wk =   0.0083333
        k(  208) = (   0.5000000   0.6428571   0.3571429), wk =   0.0083333
        k(  209) = (   0.5000000   0.6250000   0.3750000), wk =   0.0083333
        k(  210) = (   0.5000000   0.6071429   0.3928571), wk =   0.0083333
        k(  211) = (   0.5000000   0.5892857   0.4107143), wk =   0.0083333
        k(  212) = (   0.5000000   0.5714286   0.4285714), wk =   0.0083333
        k(  213) = (   0.5000000   0.5535714   0.4464286), wk =   0.0083333
        k(  214) = (   0.5000000   0.5357143   0.4642857), wk =   0.0083333
        k(  215) = (   0.5000000   0.5178571   0.4821429), wk =   0.0083333
        k(  216) = (   0.5000000   0.5000000   0.5000000), wk =   0.0083333
        k(  217) = (   0.5104167   0.5104167   0.4791667), wk =   0.0083333
        k(  218) = (   0.5208333   0.5208333   0.4583333), wk =   0.0083333
        k(  219) = (   0.5312500   0.5312500   0.4375000), wk =   0.0083333
        k(  220) = (   0.5416667   0.5416667   0.4166667), wk =   0.0083333
        k(  221) = (   0.5520833   0.5520833   0.3958333), wk =   0.0083333
        k(  222) = (   0.5625000   0.5625000   0.3750000), wk =   0.0083333
        k(  223) = (   0.5729167   0.5729167   0.3541667), wk =   0.0083333
        k(  224) = (   0.5833333   0.5833333   0.3333333), wk =   0.0083333
        k(  225) = (   0.5937500   0.5937500   0.3125000), wk =   0.0083333
        k(  226) = (   0.6041667   0.6041667   0.2916667), wk =   0.0083333
        k(  227) = (   0.6145833   0.6145833   0.2708333), wk =   0.0083333
        k(  228) = (   0.6250000   0.6250000   0.2500000), wk =   0.0083333
        k(  229) = (   0.6354167   0.6354167   0.2291667), wk =   0.0083333
        k(  230) = (   0.6458333   0.6458333   0.2083333), wk =   0.0083333
        k(  231) = (   0.6562500   0.6562500   0.1875000), wk =   0.0083333
        k(  232) = (   0.6666667   0.6666667   0.1666667), wk =   0.0083333
        k(  233) = (   0.6770833   0.6770833   0.1458333), wk =   0.0083333
        k(  234) = (   0.6875000   0.6875000   0.1250000), wk =   0.0083333
        k(  235) = (   0.6979167   0.6979167   0.1041667), wk =   0.0083333
        k(  236) = (   0.7083333   0.7083333   0.0833333), wk =   0.0083333
        k(  237) = (   0.7187500   0.7187500   0.0625000), wk =   0.0083333
        k(  238) = (   0.7291667   0.7291667   0.0416667), wk =   0.0083333
        k(  239) = (   0.7395833   0.7395833   0.0208333), wk =   0.0083333
        k(  240) = (   0.7500000   0.7500000   0.0000000), wk =   0.0083333

                       cryst. coord.
        k(    1) = (   0.0000000   0.0000000   0.0000000), wk =   0.0083333
        k(    2) = (   0.0000000   0.0128205   0.0128205), wk =   0.0083333
        k(    3) = (   0.0000000   0.0256410   0.0256410), wk =   0.0083333
        k(    4) = (   0.0000000   0.0384615   0.0384615), wk =   0.0083333
        k(    5) = (   0.0000000   0.0512821   0.0512821), wk =   0.0083333
        k(    6) = (   0.0000000   0.0641026   0.0641026), wk =   0.0083333
        k(    7) = (   0.0000000   0.0769231   0.0769231), wk =   0.0083333
        k(    8) = (   0.0000000   0.0897436   0.0897436), wk =   0.0083333
        k(    9) = (   0.0000000   0.1025641   0.1025641), wk =   0.0083333
        k(   10) = (   0.0000000   0.1153846   0.1153846), wk =   0.0083333
        k(   11) = (   0.0000000   0.1282051   0.1282051), wk =   0.0083333
        k(   12) = (   0.0000000   0.1410256   0.1410256), wk =   0.0083333
        k(   13) = (   0.0000000   0.1538462   0.1538462), wk =   0.0083333
        k(   14) = (   0.0000000   0.1666667   0.1666667), wk =   0.0083333
        k(   15) = (   0.0000000   0.1794872   0.1794872), wk =   0.0083333
        k(   16) = (   0.0000000   0.1923077   0.1923077), wk =   0.0083333
        k(   17) = (   0.0000000   0.2051282   0.2051282), wk =   0.0083333
        k(   18) = (   0.0000000   0.2179487   0.2179487), wk =   0.0083333
        k(   19) = (   0.0000000   0.2307692   0.2307692), wk =   0.0083333
        k(   20) = (   0.0000000   0.2435897   0.2435897), wk =   0.0083333
        k(   21) = (   0.0000000   0.2564103   0.2564103), wk =   0.0083333
        k(   22) = (   0.0000000   0.2692308   0.2692308), wk =   0.0083333
        k(   23) = (   0.0000000   0.2820513   0.2820513), wk =   0.0083333
        k(   24) = (   0.0000000   0.2948718   0.2948718), wk =   0.0083333
        k(   25) = (   0.0000000   0.3076923   0.3076923), wk =   0.0083333
        k(   26) = (   0.0000000   0.3205128   0.3205128), wk =   0.0083333
        k(   27) = (   0.0000000   0.3333333   0.3333333), wk =   0.0083333
        k(   28) = (   0.0000000   0.3461538   0.3461538), wk =   0.0083333
        k(   29) = (   0.0000000   0.3589744   0.3589744), wk =   0.0083333
        k(   30) = (   0.0000000   0.3717949   0.3717949), wk =   0.0083333
        k(   31) = (   0.0000000   0.3846154   0.3846154), wk =   0.0083333
        k(   32) = (   0.0000000   0.3974359   0.3974359), wk =   0.0083333
        k(   33) = (   0.0000000   0.4102564   0.4102564), wk =   0.0083333
        k(   34) = (   0.0000000   0.4230769   0.4230769), wk =   0.0083333
        k(   35) = (   0.0000000   0.4358974   0.4358974), wk =   0.0083333
        k(   36) = (   0.0000000   0.4487179   0.4487179), wk =   0.0083333
        k(   37) = (   0.0000000   0.4615385   0.4615385), wk =   0.0083333
        k(   38) = (   0.0000000   0.4743590   0.4743590), wk =   0.0083333
        k(   39) = (   0.0000000   0.4871795   0.4871795), wk =   0.0083333
        k(   40) = (   0.0000000   0.5000000   0.5000000), wk =   0.0083333
        k(   41) = (  -0.0125000   0.5000000   0.4875000), wk =   0.0083333
        k(   42) = (  -0.0250000   0.5000000   0.4750000), wk =   0.0083333
        k(   43) = (  -0.0375000   0.5000000   0.4625000), wk =   0.0083333
        k(   44) = (  -0.0500000   0.5000000   0.4500000), wk =   0.0083333
        k(   45) = (  -0.0625000   0.5000000   0.4375000), wk =   0.0083333
        k(   46) = (  -0.0750000   0.5000000   0.4250000), wk =   0.0083333
        k(   47) = (  -0.0875000   0.5000000   0.4125000), wk =   0.0083333
        k(   48) = (  -0.1000000   0.5000000   0.4000000), wk =   0.0083333
        k(   49) = (  -0.1125000   0.5000000   0.3875000), wk =   0.0083333
        k(   50) = (  -0.1250000   0.5000000   0.3750000), wk =   0.0083333
        k(   51) = (  -0.1375000   0.5000000   0.3625000), wk =   0.0083333
        k(   52) = (  -0.1500000   0.5000000   0.3500000), wk =   0.0083333
        k(   53) = (  -0.1625000   0.5000000   0.3375000), wk =   0.0083333
        k(   54) = (  -0.1750000   0.5000000   0.3250000), wk =   0.0083333
        k(   55) = (  -0.1875000   0.5000000   0.3125000), wk =   0.0083333
        k(   56) = (  -0.2000000   0.5000000   0.3000000), wk =   0.0083333
        k(   57) = (  -0.2125000   0.5000000   0.2875000), wk =   0.0083333
        k(   58) = (  -0.2250000   0.5000000   0.2750000), wk =   0.0083333
        k(   59) = (  -0.2375000   0.5000000   0.2625000), wk =   0.0083333
        k(   60) = (  -0.2500000   0.5000000   0.2500000), wk =   0.0083333
        k(   61) = (  -0.2589286   0.4910714   0.2321429), wk =   0.0083333
        k(   62) = (  -0.2678571   0.4821429   0.2142857), wk =   0.0083333
        k(   63) = (  -0.2767857   0.4732143   0.1964286), wk =   0.0083333
        k(   64) = (  -0.2857143   0.4642857   0.1785714), wk =   0.0083333
        k(   65) = (  -0.2946429   0.4553571   0.1607143), wk =   0.0083333
        k(   66) = (  -0.3035714   0.4464286   0.1428571), wk =   0.0083333
        k(   67) = (  -0.3125000   0.4375000   0.1250000), wk =   0.0083333
        k(   68) = (  -0.3214286   0.4285714   0.1071429), wk =   0.0083333
        k(   69) = (  -0.3303571   0.4196429   0.0892857), wk =   0.0083333
        k(   70) = (  -0.3392857   0.4107143   0.0714286), wk =   0.0083333
        k(   71) = (  -0.3482143   0.4017857   0.0535714), wk =   0.0083333
        k(   72) = (  -0.3571429   0.3928571   0.0357143), wk =   0.0083333
        k(   73) = (  -0.3660714   0.3839286   0.0178571), wk =   0.0083333
        k(   74) = (  -0.3750000   0.3750000   0.0000000), wk =   0.0083333
        k(   75) = (  -0.3660714   0.3660714   0.0000000), wk =   0.0083333
        k(   76) = (  -0.3571429   0.3571429   0.0000000), wk =   0.0083333
        k(   77) = (  -0.3482143   0.3482143   0.0000000), wk =   0.0083333
        k(   78) = (  -0.3392857   0.3392857   0.0000000), wk =   0.0083333
        k(   79) = (  -0.3303571   0.3303571   0.0000000), wk =   0.0083333
        k(   80) = (  -0.3214286   0.3214286   0.0000000), wk =   0.0083333
        k(   81) = (  -0.3125000   0.3125000   0.0000000), wk =   0.0083333
        k(   82) = (  -0.3035714   0.3035714   0.0000000), wk =   0.0083333
        k(   83) = (  -0.2946429   0.2946429   0.0000000), wk =   0.0083333
        k(   84) = (  -0.2857143   0.2857143   0.0000000), wk =   0.0083333
        k(   85) = (  -0.2767857   0.2767857   0.0000000), wk =   0.0083333
        k(   86) = (  -0.2678571   0.2678571   0.0000000), wk =   0.0083333
        k(   87) = (  -0.2589286   0.2589286   0.0000000), wk =   0.0083333
        k(   88) = (  -0.2500000   0.2500000   0.0000000), wk =   0.0083333
        k(   89) = (  -0.2410714   0.2410714   0.0000000), wk =   0.0083333
        k(   90) = (  -0.2321429   0.2321429   0.0000000), wk =   0.0083333
        k(   91) = (  -0.2232143   0.2232143   0.0000000), wk =   0.0083333
        k(   92) = (  -0.2142857   0.2142857   0.0000000), wk =   0.0083333
        k(   93) = (  -0.2053571   0.2053571   0.0000000), wk =   0.0083333
        k(   94) = (  -0.1964286   0.1964286   0.0000000), wk =   0.0083333
        k(   95) = (  -0.1875000   0.1875000   0.0000000), wk =   0.0083333
        k(   96) = (  -0.1785714   0.1785714   0.0000000), wk =   0.0083333
        k(   97) = (  -0.1696429   0.1696429   0.0000000), wk =   0.0083333
        k(   98) = (  -0.1607143   0.1607143   0.0000000), wk =   0.0083333
        k(   99) = (  -0.1517857   0.1517857   0.0000000), wk =   0.0083333
        k(  100) = (  -0.1428571   0.1428571   0.0000000), wk =   0.0083333
        k(  101) = (  -0.1339286   0.1339286   0.0000000), wk =   0.0083333
        k(  102) = (  -0.1250000   0.1250000   0.0000000), wk =   0.0083333
        k(  103) = (  -0.1160714   0.1160714   0.0000000), wk =   0.0083333
        k(  104) = (  -0.1071429   0.1071429   0.0000000), wk =   0.0083333
        k(  105) = (  -0.0982143   0.0982143   0.0000000), wk =   0.0083333
        k(  106) = (  -0.0892857   0.0892857   0.0000000), wk =   0.0083333
        k(  107) = (  -0.0803571   0.0803571   0.0000000), wk =   0.0083333
        k(  108) = (  -0.0714286   0.0714286   0.0000000), wk =   0.0083333
        k(  109) = (  -0.0625000   0.0625000   0.0000000), wk =   0.0083333
        k(  110) = (  -0.0535714   0.0535714   0.0000000), wk =   0.0083333
        k(  111) = (  -0.0446429   0.0446429   0.0000000), wk =   0.0083333
        k(  112) = (  -0.0357143   0.0357143   0.0000000), wk =   0.0083333
        k(  113) = (  -0.0267857   0.0267857   0.0000000), wk =   0.0083333
        k(  114) = (  -0.0178571   0.0178571   0.0000000), wk =   0.0083333
        k(  115) = (  -0.0089286   0.0089286   0.0000000), wk =   0.0083333
        k(  116) = (   0.0000000   0.0000000   0.0000000), wk =   0.0083333
        k(  117) = (   0.0000000   0.0147059   0.0000000), wk =   0.0083333
        k(  118) = (   0.0000000   0.0294118   0.0000000), wk =   0.0083333
        k(  119) = (   0.0000000   0.0441176   0.0000000), wk =   0.0083333
        k(  120) = (   0.0000000   0.0588235   0.0000000), wk =   0.0083333
        k(  121) = (   0.0000000   0.0735294   0.0000000), wk =   0.0083333
        k(  122) = (   0.0000000   0.0882353   0.0000000), wk =   0.0083333
        k(  123) = (   0.0000000   0.1029412   0.0000000), wk =   0.0083333
        k(  124) = (   0.0000000   0.1176471   0.0000000), wk =   0.0083333
        k(  125) = (   0.0000000   0.1323529   0.0000000), wk =   0.0083333
        k(  126) = (   0.0000000   0.1470588   0.0000000), wk =   0.0083333
        k(  127) = (   0.0000000   0.1617647   0.0000000), wk =   0.0083333
        k(  128) = (   0.0000000   0.1764706   0.0000000), wk =   0.0083333
        k(  129) = (   0.0000000   0.1911765   0.0000000), wk =   0.0083333
        k(  130) = (   0.0000000   0.2058824   0.0000000), wk =   0.0083333
        k(  131) = (   0.0000000   0.2205882   0.0000000), wk =   0.0083333
        k(  132) = (   0.0000000   0.2352941   0.0000000), wk =   0.0083333
        k(  133) = (   0.0000000   0.2500000   0.0000000), wk =   0.0083333
        k(  134) = (   0.0000000   0.2647059   0.0000000), wk =   0.0083333
        k(  135) = (   0.0000000   0.2794118   0.0000000), wk =   0.0083333
        k(  136) = (   0.0000000   0.2941176   0.0000000), wk =   0.0083333
        k(  137) = (   0.0000000   0.3088235   0.0000000), wk =   0.0083333
        k(  138) = (   0.0000000   0.3235294   0.0000000), wk =   0.0083333
        k(  139) = (   0.0000000   0.3382353   0.0000000), wk =   0.0083333
        k(  140) = (   0.0000000   0.3529412   0.0000000), wk =   0.0083333
        k(  141) = (   0.0000000   0.3676471   0.0000000), wk =   0.0083333
        k(  142) = (   0.0000000   0.3823529   0.0000000), wk =   0.0083333
        k(  143) = (   0.0000000   0.3970588   0.0000000), wk =   0.0083333
        k(  144) = (   0.0000000   0.4117647   0.0000000), wk =   0.0083333
        k(  145) = (   0.0000000   0.4264706   0.0000000), wk =   0.0083333
        k(  146) = (   0.0000000   0.4411765   0.0000000), wk =   0.0083333
        k(  147) = (   0.0000000   0.4558824   0.0000000), wk =   0.0083333
        k(  148) = (   0.0000000   0.4705882   0.0000000), wk =   0.0083333
        k(  149) = (   0.0000000   0.4852941   0.0000000), wk =   0.0083333
        k(  150) = (   0.0000000   0.5000000   0.0000000), wk =   0.0083333
        k(  151) = (   0.0000000   0.5052083   0.0156250), wk =   0.0083333
        k(  152) = (   0.0000000   0.5104167   0.0312500), wk =   0.0083333
        k(  153) = (   0.0000000   0.5156250   0.0468750), wk =   0.0083333
        k(  154) = (   0.0000000   0.5208333   0.0625000), wk =   0.0083333
        k(  155) = (   0.0000000   0.5260417   0.0781250), wk =   0.0083333
        k(  156) = (   0.0000000   0.5312500   0.0937500), wk =   0.0083333
        k(  157) = (   0.0000000   0.5364583   0.1093750), wk =   0.0083333
        k(  158) = (   0.0000000   0.5416667   0.1250000), wk =   0.0083333
        k(  159) = (   0.0000000   0.5468750   0.1406250), wk =   0.0083333
        k(  160) = (   0.0000000   0.5520833   0.1562500), wk =   0.0083333
        k(  161) = (   0.0000000   0.5572917   0.1718750), wk =   0.0083333
        k(  162) = (   0.0000000   0.5625000   0.1875000), wk =   0.0083333
        k(  163) = (   0.0000000   0.5677083   0.2031250), wk =   0.0083333
        k(  164) = (   0.0000000   0.5729167   0.2187500), wk =   0.0083333
        k(  165) = (   0.0000000   0.5781250   0.2343750), wk =   0.0083333
        k(  166) = (   0.0000000   0.5833333   0.2500000), wk =   0.0083333
        k(  167) = (   0.0000000   0.5885417   0.2656250), wk =   0.0083333
        k(  168) = (   0.0000000   0.5937500   0.2812500), wk =   0.0083333
        k(  169) = (   0.0000000   0.5989583   0.2968750), wk =   0.0083333
        k(  170) = (   0.0000000   0.6041667   0.3125000), wk =   0.0083333
        k(  171) = (   0.0000000   0.6093750   0.3281250), wk =   0.0083333
        k(  172) = (   0.0000000   0.6145833   0.3437500), wk =   0.0083333
        k(  173) = (   0.0000000   0.6197917   0.3593750), wk =   0.0083333
        k(  174) = (   0.0000000   0.6250000   0.3750000), wk =   0.0083333
        k(  175) = (  -0.0178571   0.6160714   0.3660714), wk =   0.0083333
        k(  176) = (  -0.0357143   0.6071429   0.3571429), wk =   0.0083333
        k(  177) = (  -0.0535714   0.5982143   0.3482143), wk =   0.0083333
        k(  178) = (  -0.0714286   0.5892857   0.3392857), wk =   0.0083333
        k(  179) = (  -0.0892857   0.5803571   0.3303571), wk =   0.0083333
        k(  180) = (  -0.1071429   0.5714286   0.3214286), wk =   0.0083333
        k(  181) = (  -0.1250000   0.5625000   0.3125000), wk =   0.0083333
        k(  182) = (  -0.1428571   0.5535714   0.3035714), wk =   0.0083333
        k(  183) = (  -0.1607143   0.5446429   0.2946429), wk =   0.0083333
        k(  184) = (  -0.1785714   0.5357143   0.2857143), wk =   0.0083333
        k(  185) = (  -0.1964286   0.5267857   0.2767857), wk =   0.0083333
        k(  186) = (  -0.2142857   0.5178571   0.2678571), wk =   0.0083333
        k(  187) = (  -0.2321429   0.5089286   0.2589286), wk =   0.0083333
        k(  188) = (  -0.2500000   0.5000000   0.2500000), wk =   0.0083333
        k(  189) = (  -0.2410714   0.5000000   0.2410714), wk =   0.0083333
        k(  190) = (  -0.2321429   0.5000000   0.2321429), wk =   0.0083333
        k(  191) = (  -0.2232143   0.5000000   0.2232143), wk =   0.0083333
        k(  192) = (  -0.2142857   0.5000000   0.2142857), wk =   0.0083333
        k(  193) = (  -0.2053571   0.5000000   0.2053571), wk =   0.0083333
        k(  194) = (  -0.1964286   0.5000000   0.1964286), wk =   0.0083333
        k(  195) = (  -0.1875000   0.5000000   0.1875000), wk =   0.0083333
        k(  196) = (  -0.1785714   0.5000000   0.1785714), wk =   0.0083333
        k(  197) = (  -0.1696429   0.5000000   0.1696429), wk =   0.0083333
        k(  198) = (  -0.1607143   0.5000000   0.1607143), wk =   0.0083333
        k(  199) = (  -0.1517857   0.5000000   0.1517857), wk =   0.0083333
        k(  200) = (  -0.1428571   0.5000000   0.1428571), wk =   0.0083333
        k(  201) = (  -0.1339286   0.5000000   0.1339286), wk =   0.0083333
        k(  202) = (  -0.1250000   0.5000000   0.1250000), wk =   0.0083333
        k(  203) = (  -0.1160714   0.5000000   0.1160714), wk =   0.0083333
        k(  204) = (  -0.1071429   0.5000000   0.1071429), wk =   0.0083333
        k(  205) = (  -0.0982143   0.5000000   0.0982143), wk =   0.0083333
        k(  206) = (  -0.0892857   0.5000000   0.0892857), wk =   0.0083333
        k(  207) = (  -0.0803571   0.5000000   0.0803571), wk =   0.0083333
        k(  208) = (  -0.0714286   0.5000000   0.0714286), wk =   0.0083333
        k(  209) = (  -0.0625000   0.5000000   0.0625000), wk =   0.0083333
        k(  210) = (  -0.0535714   0.5000000   0.0535714), wk =   0.0083333
        k(  211) = (  -0.0446429   0.5000000   0.0446429), wk =   0.0083333
        k(  212) = (  -0.0357143   0.5000000   0.0357143), wk =   0.0083333
        k(  213) = (  -0.0267857   0.5000000   0.0267857), wk =   0.0083333
        k(  214) = (  -0.0178571   0.5000000   0.0178571), wk =   0.0083333
        k(  215) = (  -0.0089286   0.5000000   0.0089286), wk =   0.0083333
        k(  216) = (   0.0000000   0.5000000   0.0000000), wk =   0.0083333
        k(  217) = (  -0.0156250   0.4947917   0.0000000), wk =   0.0083333
        k(  218) = (  -0.0312500   0.4895833   0.0000000), wk =   0.0083333
        k(  219) = (  -0.0468750   0.4843750   0.0000000), wk =   0.0083333
        k(  220) = (  -0.0625000   0.4791667   0.0000000), wk =   0.0083333
        k(  221) = (  -0.0781250   0.4739583   0.0000000), wk =   0.0083333
        k(  222) = (  -0.0937500   0.4687500   0.0000000), wk =   0.0083333
        k(  223) = (  -0.1093750   0.4635417   0.0000000), wk =   0.0083333
        k(  224) = (  -0.1250000   0.4583333   0.0000000), wk =   0.0083333
        k(  225) = (  -0.1406250   0.4531250   0.0000000), wk =   0.0083333
        k(  226) = (  -0.1562500   0.4479167   0.0000000), wk =   0.0083333
        k(  227) = (  -0.1718750   0.4427083   0.0000000), wk =   0.0083333
        k(  228) = (  -0.1875000   0.4375000   0.0000000), wk =   0.0083333
        k(  229) = (  -0.2031250   0.4322917   0.0000000), wk =   0.0083333
        k(  230) = (  -0.2187500   0.4270833   0.0000000), wk =   0.0083333
        k(  231) = (  -0.2343750   0.4218750   0.0000000), wk =   0.0083333
        k(  232) = (  -0.2500000   0.4166667   0.0000000), wk =   0.0083333
        k(  233) = (  -0.2656250   0.4114583   0.0000000), wk =   0.0083333
        k(  234) = (  -0.2812500   0.4062500   0.0000000), wk =   0.0083333
        k(  235) = (  -0.2968750   0.4010417   0.0000000), wk =   0.0083333
        k(  236) = (  -0.3125000   0.3958333   0.0000000), wk =   0.0083333
        k(  237) = (  -0.3281250   0.3906250   0.0000000), wk =   0.0083333
        k(  238) = (  -0.3437500   0.3854167   0.0000000), wk =   0.0083333
        k(  239) = (  -0.3593750   0.3802083   0.0000000), wk =   0.0083333
        k(  240) = (  -0.3750000   0.3750000   0.0000000), wk =   0.0083333

     Dense  grid:     8657 G-vectors     FFT dimensions: (  30,  30,  30)

     Smooth grid:     3119 G-vectors     FFT dimensions: (  24,  24,  24)

     Dynamical RAM for                 wfc:       0.02 MB

     Dynamical RAM for     wfc (w. buffer):       0.02 MB

     Dynamical RAM for           str. fact:       0.07 MB

     Dynamical RAM for           local pot:       0.00 MB

     Dynamical RAM for          nlocal pot:       0.01 MB

     Dynamical RAM for                qrad:       0.12 MB

     Dynamical RAM for          rho,v,vnew:       0.51 MB

     Dynamical RAM for           G-vectors:       0.26 MB

     Dynamical RAM for          h,s,v(r/c):       0.01 MB

     Dynamical RAM for          <psi|beta>:       0.00 MB

     Dynamical RAM for                 psi:       0.05 MB

     Dynamical RAM for                hpsi:       0.05 MB

     Dynamical RAM for                spsi:       0.05 MB

     Dynamical RAM for      wfcinit/wfcrot:       0.05 MB

     Dynamical RAM for           addusdens:       1.19 MB

     Estimated static dynamical RAM per process >       1.63 MB

     Estimated max dynamical RAM per process >       2.82 MB

     Estimated total dynamical RAM >       5.64 MB

     The potential is recalculated from file :
     /Users/zhy/Aluminum-from-First-Principles/qe-out/a5-bands/aluminum_a5_bands.save/charge-density

     Starting wfcs are    4 randomized atomic wfcs +    4 random wfcs

     Band Structure Calculation
     Davidson diagonalization with overlap

     Computing kpt #:     1  of   240
     total cpu time spent up to now is        0.3 secs

     Computing kpt #:     2  of   240
     total cpu time spent up to now is        0.3 secs

     Computing kpt #:     3  of   240
     total cpu time spent up to now is        0.3 secs

     Computing kpt #:     4  of   240
     total cpu time spent up to now is        0.3 secs

     Computing kpt #:     5  of   240
     total cpu time spent up to now is        0.3 secs

     Computing kpt #:     6  of   240
     total cpu time spent up to now is        0.4 secs

     Computing kpt #:     7  of   240
     total cpu time spent up to now is        0.4 secs

     Computing kpt #:     8  of   240
     total cpu time spent up to now is        0.4 secs

     Computing kpt #:     9  of   240
     total cpu time spent up to now is        0.4 secs

     Computing kpt #:    10  of   240
     total cpu time spent up to now is        0.4 secs

     Computing kpt #:    11  of   240
     total cpu time spent up to now is        0.4 secs

     Computing kpt #:    12  of   240
     total cpu time spent up to now is        0.4 secs

     Computing kpt #:    13  of   240
     total cpu time spent up to now is        0.5 secs

     Computing kpt #:    14  of   240
     total cpu time spent up to now is        0.5 secs

     Computing kpt #:    15  of   240
     total cpu time spent up to now is        0.5 secs

     Computing kpt #:    16  of   240
     total cpu time spent up to now is        0.5 secs

     Computing kpt #:    17  of   240
     total cpu time spent up to now is        0.5 secs

     Computing kpt #:    18  of   240
     total cpu time spent up to now is        0.5 secs

     Computing kpt #:    19  of   240
     total cpu time spent up to now is        0.5 secs

     Computing kpt #:    20  of   240
     total cpu time spent up to now is        0.6 secs

     Computing kpt #:    21  of   240
     total cpu time spent up to now is        0.6 secs

     Computing kpt #:    22  of   240
     total cpu time spent up to now is        0.6 secs

     Computing kpt #:    23  of   240
     total cpu time spent up to now is        0.6 secs

     Computing kpt #:    24  of   240
     total cpu time spent up to now is        0.6 secs

     Computing kpt #:    25  of   240
     total cpu time spent up to now is        0.6 secs

     Computing kpt #:    26  of   240
     total cpu time spent up to now is        0.6 secs

     Computing kpt #:    27  of   240
     total cpu time spent up to now is        0.7 secs

     Computing kpt #:    28  of   240
     total cpu time spent up to now is        0.7 secs

     Computing kpt #:    29  of   240
     total cpu time spent up to now is        0.7 secs

     Computing kpt #:    30  of   240
     total cpu time spent up to now is        0.7 secs

     Computing kpt #:    31  of   240
     total cpu time spent up to now is        0.7 secs

     Computing kpt #:    32  of   240
     total cpu time spent up to now is        0.7 secs

     Computing kpt #:    33  of   240
     total cpu time spent up to now is        0.7 secs

     Computing kpt #:    34  of   240
     total cpu time spent up to now is        0.7 secs

     Computing kpt #:    35  of   240
     total cpu time spent up to now is        0.8 secs

     Computing kpt #:    36  of   240
     total cpu time spent up to now is        0.8 secs

     Computing kpt #:    37  of   240
     total cpu time spent up to now is        0.8 secs

     Computing kpt #:    38  of   240
     total cpu time spent up to now is        0.8 secs

     Computing kpt #:    39  of   240
     total cpu time spent up to now is        0.8 secs

     Computing kpt #:    40  of   240
     total cpu time spent up to now is        0.8 secs

     Computing kpt #:    41  of   240
     total cpu time spent up to now is        0.8 secs

     Computing kpt #:    42  of   240
     total cpu time spent up to now is        0.9 secs

     Computing kpt #:    43  of   240
     total cpu time spent up to now is        0.9 secs

     Computing kpt #:    44  of   240
     total cpu time spent up to now is        0.9 secs

     Computing kpt #:    45  of   240
     total cpu time spent up to now is        0.9 secs

     Computing kpt #:    46  of   240
     total cpu time spent up to now is        0.9 secs

     Computing kpt #:    47  of   240
     total cpu time spent up to now is        0.9 secs

     Computing kpt #:    48  of   240
     total cpu time spent up to now is        0.9 secs

     Computing kpt #:    49  of   240
     total cpu time spent up to now is        1.0 secs

     Computing kpt #:    50  of   240
     total cpu time spent up to now is        1.0 secs

     Computing kpt #:    51  of   240
     total cpu time spent up to now is        1.0 secs

     Computing kpt #:    52  of   240
     total cpu time spent up to now is        1.0 secs

     Computing kpt #:    53  of   240
     total cpu time spent up to now is        1.0 secs

     Computing kpt #:    54  of   240
     total cpu time spent up to now is        1.0 secs

     Computing kpt #:    55  of   240
     total cpu time spent up to now is        1.0 secs

     Computing kpt #:    56  of   240
     total cpu time spent up to now is        1.0 secs

     Computing kpt #:    57  of   240
     total cpu time spent up to now is        1.0 secs

     Computing kpt #:    58  of   240
     total cpu time spent up to now is        1.0 secs

     Computing kpt #:    59  of   240
     total cpu time spent up to now is        1.1 secs

     Computing kpt #:    60  of   240
     total cpu time spent up to now is        1.1 secs

     Computing kpt #:    61  of   240
     total cpu time spent up to now is        1.1 secs

     Computing kpt #:    62  of   240
     total cpu time spent up to now is        1.1 secs

     Computing kpt #:    63  of   240
     total cpu time spent up to now is        1.1 secs

     Computing kpt #:    64  of   240
     total cpu time spent up to now is        1.1 secs

     Computing kpt #:    65  of   240
     total cpu time spent up to now is        1.1 secs

     Computing kpt #:    66  of   240
     total cpu time spent up to now is        1.1 secs

     Computing kpt #:    67  of   240
     total cpu time spent up to now is        1.1 secs

     Computing kpt #:    68  of   240
     total cpu time spent up to now is        1.1 secs

     Computing kpt #:    69  of   240
     total cpu time spent up to now is        1.2 secs

     Computing kpt #:    70  of   240
     total cpu time spent up to now is        1.2 secs

     Computing kpt #:    71  of   240
     total cpu time spent up to now is        1.2 secs

     Computing kpt #:    72  of   240
     total cpu time spent up to now is        1.2 secs

     Computing kpt #:    73  of   240
     total cpu time spent up to now is        1.2 secs

     Computing kpt #:    74  of   240
     total cpu time spent up to now is        1.2 secs

     Computing kpt #:    75  of   240
     total cpu time spent up to now is        1.2 secs

     Computing kpt #:    76  of   240
     total cpu time spent up to now is        1.2 secs

     Computing kpt #:    77  of   240
     total cpu time spent up to now is        1.3 secs

     Computing kpt #:    78  of   240
     total cpu time spent up to now is        1.3 secs

     Computing kpt #:    79  of   240
     total cpu time spent up to now is        1.3 secs

     Computing kpt #:    80  of   240
     total cpu time spent up to now is        1.3 secs

     Computing kpt #:    81  of   240
     total cpu time spent up to now is        1.3 secs

     Computing kpt #:    82  of   240
     total cpu time spent up to now is        1.3 secs

     Computing kpt #:    83  of   240
     total cpu time spent up to now is        1.3 secs

     Computing kpt #:    84  of   240
     total cpu time spent up to now is        1.4 secs

     Computing kpt #:    85  of   240
     total cpu time spent up to now is        1.4 secs

     Computing kpt #:    86  of   240
     total cpu time spent up to now is        1.4 secs

     Computing kpt #:    87  of   240
     total cpu time spent up to now is        1.4 secs

     Computing kpt #:    88  of   240
     total cpu time spent up to now is        1.4 secs

     Computing kpt #:    89  of   240
     total cpu time spent up to now is        1.4 secs

     Computing kpt #:    90  of   240
     total cpu time spent up to now is        1.4 secs

     Computing kpt #:    91  of   240
     total cpu time spent up to now is        1.4 secs

     Computing kpt #:    92  of   240
     total cpu time spent up to now is        1.4 secs

     Computing kpt #:    93  of   240
     total cpu time spent up to now is        1.5 secs

     Computing kpt #:    94  of   240
     total cpu time spent up to now is        1.5 secs

     Computing kpt #:    95  of   240
     total cpu time spent up to now is        1.5 secs

     Computing kpt #:    96  of   240
     total cpu time spent up to now is        1.5 secs

     Computing kpt #:    97  of   240
     total cpu time spent up to now is        1.5 secs

     Computing kpt #:    98  of   240
     total cpu time spent up to now is        1.5 secs

     Computing kpt #:    99  of   240
     total cpu time spent up to now is        1.5 secs

     Computing kpt #:   100  of   240
     total cpu time spent up to now is        1.6 secs

     Computing kpt #:   101  of   240
     total cpu time spent up to now is        1.6 secs

     Computing kpt #:   102  of   240
     total cpu time spent up to now is        1.6 secs

     Computing kpt #:   103  of   240
     total cpu time spent up to now is        1.6 secs

     Computing kpt #:   104  of   240
     total cpu time spent up to now is        1.6 secs

     Computing kpt #:   105  of   240
     total cpu time spent up to now is        1.6 secs

     Computing kpt #:   106  of   240
     total cpu time spent up to now is        1.7 secs

     Computing kpt #:   107  of   240
     total cpu time spent up to now is        1.7 secs

     Computing kpt #:   108  of   240
     total cpu time spent up to now is        1.7 secs

     Computing kpt #:   109  of   240
     total cpu time spent up to now is        1.7 secs

     Computing kpt #:   110  of   240
     total cpu time spent up to now is        1.7 secs

     Computing kpt #:   111  of   240
     total cpu time spent up to now is        1.7 secs

     Computing kpt #:   112  of   240
     total cpu time spent up to now is        1.7 secs

     Computing kpt #:   113  of   240
     total cpu time spent up to now is        1.8 secs

     Computing kpt #:   114  of   240
     total cpu time spent up to now is        1.8 secs

     Computing kpt #:   115  of   240
     total cpu time spent up to now is        1.8 secs

     Computing kpt #:   116  of   240
     total cpu time spent up to now is        1.8 secs

     Computing kpt #:   117  of   240
     total cpu time spent up to now is        1.8 secs

     Computing kpt #:   118  of   240
     total cpu time spent up to now is        1.8 secs

     Computing kpt #:   119  of   240
     total cpu time spent up to now is        1.9 secs

     Computing kpt #:   120  of   240
     total cpu time spent up to now is        1.9 secs

     Computing kpt #:   121  of   240
     total cpu time spent up to now is        1.9 secs

     Computing kpt #:   122  of   240
     total cpu time spent up to now is        1.9 secs

     Computing kpt #:   123  of   240
     total cpu time spent up to now is        1.9 secs

     Computing kpt #:   124  of   240
     total cpu time spent up to now is        1.9 secs

     Computing kpt #:   125  of   240
     total cpu time spent up to now is        2.0 secs

     Computing kpt #:   126  of   240
     total cpu time spent up to now is        2.0 secs

     Computing kpt #:   127  of   240
     total cpu time spent up to now is        2.0 secs

     Computing kpt #:   128  of   240
     total cpu time spent up to now is        2.0 secs

     Computing kpt #:   129  of   240
     total cpu time spent up to now is        2.0 secs

     Computing kpt #:   130  of   240
     total cpu time spent up to now is        2.0 secs

     Computing kpt #:   131  of   240
     total cpu time spent up to now is        2.0 secs

     Computing kpt #:   132  of   240
     total cpu time spent up to now is        2.1 secs

     Computing kpt #:   133  of   240
     total cpu time spent up to now is        2.1 secs

     Computing kpt #:   134  of   240
     total cpu time spent up to now is        2.1 secs

     Computing kpt #:   135  of   240
     total cpu time spent up to now is        2.1 secs

     Computing kpt #:   136  of   240
     total cpu time spent up to now is        2.1 secs

     Computing kpt #:   137  of   240
     total cpu time spent up to now is        2.1 secs

     Computing kpt #:   138  of   240
     total cpu time spent up to now is        2.1 secs

     Computing kpt #:   139  of   240
     total cpu time spent up to now is        2.1 secs

     Computing kpt #:   140  of   240
     total cpu time spent up to now is        2.2 secs

     Computing kpt #:   141  of   240
     total cpu time spent up to now is        2.2 secs

     Computing kpt #:   142  of   240
     total cpu time spent up to now is        2.2 secs

     Computing kpt #:   143  of   240
     total cpu time spent up to now is        2.2 secs

     Computing kpt #:   144  of   240
     total cpu time spent up to now is        2.2 secs

     Computing kpt #:   145  of   240
     total cpu time spent up to now is        2.2 secs

     Computing kpt #:   146  of   240
     total cpu time spent up to now is        2.2 secs

     Computing kpt #:   147  of   240
     total cpu time spent up to now is        2.2 secs

     Computing kpt #:   148  of   240
     total cpu time spent up to now is        2.2 secs

     Computing kpt #:   149  of   240
     total cpu time spent up to now is        2.3 secs

     Computing kpt #:   150  of   240
     total cpu time spent up to now is        2.3 secs

     Computing kpt #:   151  of   240
     total cpu time spent up to now is        2.3 secs

     Computing kpt #:   152  of   240
     total cpu time spent up to now is        2.3 secs

     Computing kpt #:   153  of   240
     total cpu time spent up to now is        2.3 secs

     Computing kpt #:   154  of   240
     total cpu time spent up to now is        2.3 secs

     Computing kpt #:   155  of   240
     total cpu time spent up to now is        2.3 secs

     Computing kpt #:   156  of   240
     total cpu time spent up to now is        2.3 secs

     Computing kpt #:   157  of   240
     total cpu time spent up to now is        2.3 secs

     Computing kpt #:   158  of   240
     total cpu time spent up to now is        2.4 secs

     Computing kpt #:   159  of   240
     total cpu time spent up to now is        2.4 secs

     Computing kpt #:   160  of   240
     total cpu time spent up to now is        2.4 secs

     Computing kpt #:   161  of   240
     total cpu time spent up to now is        2.4 secs

     Computing kpt #:   162  of   240
     total cpu time spent up to now is        2.4 secs

     Computing kpt #:   163  of   240
     total cpu time spent up to now is        2.4 secs

     Computing kpt #:   164  of   240
     total cpu time spent up to now is        2.4 secs

     Computing kpt #:   165  of   240
     total cpu time spent up to now is        2.4 secs

     Computing kpt #:   166  of   240
     total cpu time spent up to now is        2.4 secs

     Computing kpt #:   167  of   240
     total cpu time spent up to now is        2.5 secs

     Computing kpt #:   168  of   240
     total cpu time spent up to now is        2.5 secs

     Computing kpt #:   169  of   240
     total cpu time spent up to now is        2.5 secs

     Computing kpt #:   170  of   240
     total cpu time spent up to now is        2.5 secs

     Computing kpt #:   171  of   240
     total cpu time spent up to now is        2.5 secs

     Computing kpt #:   172  of   240
     total cpu time spent up to now is        2.5 secs

     Computing kpt #:   173  of   240
     total cpu time spent up to now is        2.5 secs

     Computing kpt #:   174  of   240
     total cpu time spent up to now is        2.5 secs

     Computing kpt #:   175  of   240
     total cpu time spent up to now is        2.6 secs

     Computing kpt #:   176  of   240
     total cpu time spent up to now is        2.6 secs

     Computing kpt #:   177  of   240
     total cpu time spent up to now is        2.6 secs

     Computing kpt #:   178  of   240
     total cpu time spent up to now is        2.6 secs

     Computing kpt #:   179  of   240
     total cpu time spent up to now is        2.6 secs

     Computing kpt #:   180  of   240
     total cpu time spent up to now is        2.6 secs

     Computing kpt #:   181  of   240
     total cpu time spent up to now is        2.6 secs

     Computing kpt #:   182  of   240
     total cpu time spent up to now is        2.6 secs

     Computing kpt #:   183  of   240
     total cpu time spent up to now is        2.6 secs

     Computing kpt #:   184  of   240
     total cpu time spent up to now is        2.7 secs

     Computing kpt #:   185  of   240
     total cpu time spent up to now is        2.7 secs

     Computing kpt #:   186  of   240
     total cpu time spent up to now is        2.7 secs

     Computing kpt #:   187  of   240
     total cpu time spent up to now is        2.7 secs

     Computing kpt #:   188  of   240
     total cpu time spent up to now is        2.7 secs

     Computing kpt #:   189  of   240
     total cpu time spent up to now is        2.7 secs

     Computing kpt #:   190  of   240
     total cpu time spent up to now is        2.7 secs

     Computing kpt #:   191  of   240
     total cpu time spent up to now is        2.7 secs

     Computing kpt #:   192  of   240
     total cpu time spent up to now is        2.7 secs

     Computing kpt #:   193  of   240
     total cpu time spent up to now is        2.7 secs

     Computing kpt #:   194  of   240
     total cpu time spent up to now is        2.7 secs

     Computing kpt #:   195  of   240
     total cpu time spent up to now is        2.8 secs

     Computing kpt #:   196  of   240
     total cpu time spent up to now is        2.8 secs

     Computing kpt #:   197  of   240
     total cpu time spent up to now is        2.8 secs

     Computing kpt #:   198  of   240
     total cpu time spent up to now is        2.8 secs

     Computing kpt #:   199  of   240
     total cpu time spent up to now is        2.8 secs

     Computing kpt #:   200  of   240
     total cpu time spent up to now is        2.8 secs

     Computing kpt #:   201  of   240
     total cpu time spent up to now is        2.8 secs

     Computing kpt #:   202  of   240
     total cpu time spent up to now is        2.8 secs

     Computing kpt #:   203  of   240
     total cpu time spent up to now is        2.9 secs

     Computing kpt #:   204  of   240
     total cpu time spent up to now is        2.9 secs

     Computing kpt #:   205  of   240
     total cpu time spent up to now is        2.9 secs

     Computing kpt #:   206  of   240
     total cpu time spent up to now is        2.9 secs

     Computing kpt #:   207  of   240
     total cpu time spent up to now is        2.9 secs

     Computing kpt #:   208  of   240
     total cpu time spent up to now is        2.9 secs

     Computing kpt #:   209  of   240
     total cpu time spent up to now is        2.9 secs

     Computing kpt #:   210  of   240
     total cpu time spent up to now is        2.9 secs

     Computing kpt #:   211  of   240
     total cpu time spent up to now is        2.9 secs

     Computing kpt #:   212  of   240
     total cpu time spent up to now is        3.0 secs

     Computing kpt #:   213  of   240
     total cpu time spent up to now is        3.0 secs

     Computing kpt #:   214  of   240
     total cpu time spent up to now is        3.0 secs

     Computing kpt #:   215  of   240
     total cpu time spent up to now is        3.0 secs

     Computing kpt #:   216  of   240
     total cpu time spent up to now is        3.0 secs

     Computing kpt #:   217  of   240
     total cpu time spent up to now is        3.0 secs

     Computing kpt #:   218  of   240
     total cpu time spent up to now is        3.0 secs

     Computing kpt #:   219  of   240
     total cpu time spent up to now is        3.0 secs

     Computing kpt #:   220  of   240
     total cpu time spent up to now is        3.0 secs

     Computing kpt #:   221  of   240
     total cpu time spent up to now is        3.1 secs

     Computing kpt #:   222  of   240
     total cpu time spent up to now is        3.1 secs

     Computing kpt #:   223  of   240
     total cpu time spent up to now is        3.1 secs

     Computing kpt #:   224  of   240
     total cpu time spent up to now is        3.1 secs

     Computing kpt #:   225  of   240
     total cpu time spent up to now is        3.1 secs

     Computing kpt #:   226  of   240
     total cpu time spent up to now is        3.1 secs

     Computing kpt #:   227  of   240
     total cpu time spent up to now is        3.1 secs

     Computing kpt #:   228  of   240
     total cpu time spent up to now is        3.1 secs

     Computing kpt #:   229  of   240
     total cpu time spent up to now is        3.2 secs

     Computing kpt #:   230  of   240
     total cpu time spent up to now is        3.2 secs

     Computing kpt #:   231  of   240
     total cpu time spent up to now is        3.2 secs

     Computing kpt #:   232  of   240
     total cpu time spent up to now is        3.2 secs

     Computing kpt #:   233  of   240
     total cpu time spent up to now is        3.2 secs

     Computing kpt #:   234  of   240
     total cpu time spent up to now is        3.2 secs

     Computing kpt #:   235  of   240
     total cpu time spent up to now is        3.2 secs

     Computing kpt #:   236  of   240
     total cpu time spent up to now is        3.2 secs

     Computing kpt #:   237  of   240
     total cpu time spent up to now is        3.3 secs

     Computing kpt #:   238  of   240
     total cpu time spent up to now is        3.3 secs

     Computing kpt #:   239  of   240
     total cpu time spent up to now is        3.3 secs

     Computing kpt #:   240  of   240
     total cpu time spent up to now is        3.3 secs

     ethr =  3.33E-08,  avg # of iterations = 22.9

     total cpu time spent up to now is        3.3 secs

     End of band structure calculation

          k = 0.0000 0.0000 0.0000 (   387 PWs)   bands (ev):

    -3.2066  20.7312  20.7312  20.7312  22.0532  22.0532  22.0532  24.6142

          k = 0.0000 0.0256 0.0000 (   383 PWs)   bands (ev):

    -3.2006  20.6305  20.6305  20.6806  22.0375  22.1624  22.1624  24.6768

          k = 0.0000 0.0513 0.0000 (   375 PWs)   bands (ev):

    -3.1825  20.3918  20.3918  20.5380  21.9884  22.4286  22.4286  24.8556

          k = 0.0000 0.0769 0.0000 (   379 PWs)   bands (ev):

    -3.1524  20.0943  20.0943  20.3238  21.9051  22.7669  22.7669  25.1296

          k = 0.0000 0.1026 0.0000 (   383 PWs)   bands (ev):

    -3.1102  19.7767  19.7767  20.0608  21.7943  23.1415  23.1415  25.4766

          k = 0.0000 0.1282 0.0000 (   383 PWs)   bands (ev):

    -3.0561  19.4551  19.4551  19.7670  21.6604  23.5371  23.5371  25.7806

          k = 0.0000 0.1538 0.0000 (   371 PWs)   bands (ev):

    -2.9899  19.1353  19.1353  19.4564  21.5065  23.9495  23.9495  25.1768

          k = 0.0000 0.1795 0.0000 (   371 PWs)   bands (ev):

    -2.9117  18.8200  18.8200  19.1359  21.3361  24.3696  24.3696  24.5422

          k = 0.0000 0.2051 0.0000 (   371 PWs)   bands (ev):

    -2.8215  18.5113  18.5113  18.8123  21.1527  23.8899  24.7977  24.7977

          k = 0.0000 0.2308 0.0000 (   371 PWs)   bands (ev):

    -2.7194  18.2102  18.2102  18.4897  20.9594  23.2274  25.2318  25.2318

          k = 0.0000 0.2564 0.0000 (   371 PWs)   bands (ev):

    -2.6053  17.9175  17.9175  18.1708  20.7586  22.5601  25.6704  25.6704

          k = 0.0000 0.2821 0.0000 (   371 PWs)   bands (ev):

    -2.4794  17.6335  17.6335  17.8576  20.5519  21.8922  26.1121  26.1121

          k = 0.0000 0.3077 0.0000 (   371 PWs)   bands (ev):

    -2.3416  17.3586  17.3586  17.5514  20.3394  21.2282  26.5553  26.5553

          k = 0.0000 0.3333 0.0000 (   371 PWs)   bands (ev):

    -2.1919  17.0931  17.0931  17.2534  20.1132  20.5795  26.9986  26.9986

          k = 0.0000 0.3590 0.0000 (   371 PWs)   bands (ev):

    -2.0304  16.8372  16.8372  16.9643  19.7795  20.0427  27.4404  27.4404

          k = 0.0000 0.3846 0.0000 (   371 PWs)   bands (ev):

    -1.8572  16.5909  16.5909  16.6847  19.1892  19.7693  27.8791  27.8791

          k = 0.0000 0.4103 0.0000 (   375 PWs)   bands (ev):

    -1.6723  16.3533  16.3533  16.4149  18.5466  19.5531  28.3156  28.3156

          k = 0.0000 0.4359 0.0000 (   375 PWs)   bands (ev):

    -1.4757  16.1266  16.1266  16.1554  17.9048  19.3499  28.7433  28.7433

          k = 0.0000 0.4615 0.0000 (   375 PWs)   bands (ev):

    -1.2675  15.9065  15.9098  15.9098  17.2675  19.1539  29.1633  29.1633

          k = 0.0000 0.4872 0.0000 (   375 PWs)   bands (ev):

    -1.0477  15.6684  15.7029  15.7029  16.6364  18.9642  29.5205  29.5743

          k = 0.0000 0.5128 0.0000 (   375 PWs)   bands (ev):

    -0.8165  15.4412  15.5060  15.5060  16.0125  18.7811  29.7247  29.9754

          k = 0.0000 0.5385 0.0000 (   375 PWs)   bands (ev):

    -0.5738  15.2252  15.3192  15.3192  15.3962  18.6049  29.9375  30.3658

          k = 0.0000 0.5641 0.0000 (   375 PWs)   bands (ev):

    -0.3198  14.7880  15.0204  15.1424  15.1424  18.4359  30.1583  30.7453

          k = 0.0000 0.5897 0.0000 (   379 PWs)   bands (ev):

    -0.0545  14.1852  14.8270  14.9753  14.9753  18.2741  30.3865  31.1148

          k = 0.0000 0.6154 0.0000 (   379 PWs)   bands (ev):

     0.2219  13.5939  14.6450  14.8186  14.8186  18.1208  30.6214  31.4722

          k = 0.0000 0.6410 0.0000 (   387 PWs)   bands (ev):

     0.5094  13.0114  14.4740  14.6711  14.6711  17.9744  30.8603  31.8189

          k = 0.0000 0.6667 0.0000 (   387 PWs)   bands (ev):

     0.8078  12.4381  14.3151  14.5347  14.5347  17.8382  31.1059  32.1555

          k = 0.0000 0.6923 0.0000 (   387 PWs)   bands (ev):

     1.1169  11.8741  14.1677  14.4083  14.4083  17.7109  31.3551  32.4823

          k = 0.0000 0.7179 0.0000 (   387 PWs)   bands (ev):

     1.4366  11.3198  14.0321  14.2920  14.2920  17.5930  31.6064  32.7992

          k = 0.0000 0.7436 0.0000 (   387 PWs)   bands (ev):

     1.7667  10.7753  13.9081  14.1859  14.1859  17.4845  31.8577  33.1061

          k = 0.0000 0.7692 0.0000 (   387 PWs)   bands (ev):

     2.1067  10.2411  13.7958  14.0898  14.0898  17.3858  32.1068  33.4024

          k = 0.0000 0.7949 0.0000 (   383 PWs)   bands (ev):

     2.4565   9.7176  13.6954  14.0039  14.0039  17.2969  32.3507  33.6896

          k = 0.0000 0.8205 0.0000 (   383 PWs)   bands (ev):

     2.8151   9.2056  13.6067  13.9281  13.9281  17.2181  32.5860  33.7875

          k = 0.0000 0.8462 0.0000 (   392 PWs)   bands (ev):

     3.1817   8.7055  13.5292  13.8618  13.8618  17.1487  32.8074  33.8522

          k = 0.0000 0.8718 0.0000 (   392 PWs)   bands (ev):

     3.5545   8.2201  13.4640  13.8062  13.8062  17.0905  33.0114  33.9250

          k = 0.0000 0.8974 0.0000 (   388 PWs)   bands (ev):

     3.9309   7.7519  13.4107  13.7607  13.7607  17.0427  33.1913  33.9990

          k = 0.0000 0.9231 0.0000 (   388 PWs)   bands (ev):

     4.3037   7.3074  13.3693  13.7253  13.7253  17.0054  33.3407  34.0469

          k = 0.0000 0.9487 0.0000 (   388 PWs)   bands (ev):

     4.6580   6.9019  13.3396  13.7001  13.7001  16.9788  33.4533  34.0817

          k = 0.0000 0.9744 0.0000 (   388 PWs)   bands (ev):

     4.9520   6.5772  13.3219  13.6849  13.6849  16.9628  33.5235  34.1028

          k = 0.0000 1.0000 0.0000 (   388 PWs)   bands (ev):

     5.0807   6.4383  13.3159  13.6798  13.6798  16.9574  33.5473  34.1099

          k = 0.0250 1.0000 0.0000 (   388 PWs)   bands (ev):

     5.0859   6.4438  13.0450  13.6336  13.9612  17.0117  33.5106  34.1011

          k = 0.0500 1.0000 0.0000 (   388 PWs)   bands (ev):

     5.1016   6.4603  12.6583  13.5030  14.3790  17.1661  33.3964  34.0818

          k = 0.0750 1.0000 0.0000 (   388 PWs)   bands (ev):

     5.1279   6.4877  12.2703  13.3077  14.8189  17.4012  33.2013  34.0647

          k = 0.1000 1.0000 0.0000 (   386 PWs)   bands (ev):

     5.1646   6.5260  11.8896  13.0682  15.2722  17.6972  32.9330  33.8914

          k = 0.1250 1.0000 0.0000 (   386 PWs)   bands (ev):

     5.2119   6.5753  11.5180  12.8007  15.7371  18.0362  32.6000  33.3633

          k = 0.1500 1.0000 0.0000 (   384 PWs)   bands (ev):

     5.2697   6.6353  11.1556  12.5163  16.2139  18.4088  32.2144  32.7915

          k = 0.1750 1.0000 0.0000 (   384 PWs)   bands (ev):

     5.3379   6.7060  10.8040  12.2240  16.7000  18.8041  31.7940  32.1889

          k = 0.2000 1.0000 0.0000 (   384 PWs)   bands (ev):

     5.4167   6.7873  10.4627  11.9282  17.1968  19.2198  31.3348  31.5649

          k = 0.2250 1.0000 0.0000 (   384 PWs)   bands (ev):

     5.5061   6.8790  10.1309  11.6326  17.7040  19.6496  30.8632  30.9291

          k = 0.2500 1.0000 0.0000 (   384 PWs)   bands (ev):

     5.6058   6.9808   9.8104  11.3408  18.2205  20.0913  30.2850  30.3762

          k = 0.2750 1.0000 0.0000 (   384 PWs)   bands (ev):

     5.7161   7.0925   9.5003  11.0541  18.7469  20.5432  29.6364  29.8781

          k = 0.3000 1.0000 0.0000 (   388 PWs)   bands (ev):

     5.8368   7.2137   9.2001  10.7737  19.2829  21.0034  28.9855  29.3704

          k = 0.3250 1.0000 0.0000 (   388 PWs)   bands (ev):

     5.9681   7.3436   8.9109  10.5021  19.8286  21.4703  28.3356  28.8605

          k = 0.3500 1.0000 0.0000 (   388 PWs)   bands (ev):

     6.1099   7.4815   8.6323  10.2406  20.3837  21.9417  27.6878  28.3497

          k = 0.3750 1.0000 0.0000 (   388 PWs)   bands (ev):

     6.2622   7.6256   8.3642   9.9910  20.9481  22.4151  27.0432  27.8417

          k = 0.4000 1.0000 0.0000 (   388 PWs)   bands (ev):

     6.4250   7.7733   8.1067   9.7566  21.5215  22.8861  26.4032  27.3413

          k = 0.4250 1.0000 0.0000 (   388 PWs)   bands (ev):

     6.5984   7.8596   7.9196   9.5426  22.1038  23.3467  25.7684  26.8574

          k = 0.4500 1.0000 0.0000 (   388 PWs)   bands (ev):

     6.7823   7.6231   8.0545   9.3592  22.6947  23.7783  25.1397  26.4088

          k = 0.4750 1.0000 0.0000 (   388 PWs)   bands (ev):

     6.9767   7.3971   8.1580   9.2265  23.2939  24.1316  24.5177  26.0452

          k = 0.5000 1.0000 0.0000 (   396 PWs)   bands (ev):

     7.1815   7.1815   8.1988   9.1758  23.9010  23.9010  24.2836  25.8857

          k = 0.5179 0.9821 0.0000 (   387 PWs)   bands (ev):

     7.0369   7.2694   8.2147   9.2379  23.3979  24.2677  24.3430  25.9826

          k = 0.5357 0.9643-0.0000 (   387 PWs)   bands (ev):

     6.9028   7.2604   8.2172   9.4402  22.8234  24.2080  24.7925  26.2079

          k = 0.5536 0.9464 0.0000 (   387 PWs)   bands (ev):

     6.7795   7.2034   8.1795   9.7610  22.2187  24.1286  25.2502  26.5016

          k = 0.5714 0.9286-0.0000 (   387 PWs)   bands (ev):

     6.6669   7.1286   8.1161  10.1556  21.6009  24.0445  25.7157  26.8309

          k = 0.5893 0.9107 0.0000 (   387 PWs)   bands (ev):

     6.5651   7.0498   8.0432  10.5934  20.9789  23.9629  26.1886  27.1794

          k = 0.6071 0.8929-0.0000 (   383 PWs)   bands (ev):

     6.4739   6.9737   7.9698  11.0598  20.3576  23.8870  26.6687  27.5391

          k = 0.6250 0.8750 0.0000 (   385 PWs)   bands (ev):

     6.3935   6.9034   7.9004  11.5439  19.7394  23.8185  27.1545  27.9008

          k = 0.6429 0.8571 0.0000 (   384 PWs)   bands (ev):

     6.3238   6.8408   7.8379  12.0415  19.1287  23.7584  27.6456  28.2598

          k = 0.6607 0.8393-0.0000 (   386 PWs)   bands (ev):

     6.2648   6.7865   7.7835  12.5479  18.5274  23.7069  28.1406  28.6094

          k = 0.6786 0.8214 0.0000 (   386 PWs)   bands (ev):

     6.2166   6.7418   7.7381  13.0586  17.9398  23.6644  28.6378  28.9407

          k = 0.6964 0.8036-0.0000 (   387 PWs)   bands (ev):

     6.1791   6.7066   7.7024  13.5654  17.3727  23.6312  29.1340  29.2404

          k = 0.7143 0.7857 0.0000 (   385 PWs)   bands (ev):

     6.1523   6.6814   7.6768  14.0512  16.8453  23.6075  29.4905  29.6223

          k = 0.7321 0.7679-0.0000 (   385 PWs)   bands (ev):

     6.1362   6.6662   7.6613  14.4626  16.4085  23.5932  29.6596  30.0774

          k = 0.7500 0.7500 0.0000 (   391 PWs)   bands (ev):

     6.1308   6.6611   7.6561  14.6491  16.2119  23.5882  29.7186  30.3374

          k = 0.7321 0.7321 0.0000 (   391 PWs)   bands (ev):

     6.2453   6.2862   7.7856  14.7926  16.3811  24.2394  29.3772  29.9157

          k = 0.7143 0.7143 0.0000 (   383 PWs)   bands (ev):

     5.8196   6.4525   7.9446  14.9473  16.5607  24.8922  29.0411  29.5012

          k = 0.6964 0.6964 0.0000 (   383 PWs)   bands (ev):

     5.3960   6.6294   8.1210  15.1106  16.7481  25.5425  28.7108  29.0905

          k = 0.6786 0.6786 0.0000 (   383 PWs)   bands (ev):

     4.9785   6.8170   8.3112  15.2837  16.9448  26.1858  28.3869  28.6867

          k = 0.6607 0.6607 0.0000 (   383 PWs)   bands (ev):

     4.5687   7.0154   8.5136  15.4667  17.1509  26.8145  28.0701  28.2902

          k = 0.6429 0.6429 0.0000 (   385 PWs)   bands (ev):

     4.1672   7.2245   8.7274  15.6597  17.3664  27.4156  27.7595  27.9016

          k = 0.6250 0.6250 0.0000 (   387 PWs)   bands (ev):

     3.7749   7.4444   8.9521  15.8625  17.5912  27.4577  27.5214  27.9665

          k = 0.6071 0.6071 0.0000 (   387 PWs)   bands (ev):

     3.3921   7.6750   9.1874  16.0751  17.8252  27.1499  27.1637  28.3836

          k = 0.5893 0.5893 0.0000 (   387 PWs)   bands (ev):

     3.0189   7.9163   9.4331  16.2976  18.0684  26.7874  26.8779  28.0808

          k = 0.5714 0.5714 0.0000 (   387 PWs)   bands (ev):

     2.6557   8.1684   9.6888  16.5299  18.3206  26.4342  26.6005  27.7861

          k = 0.5536 0.5536 0.0000 (   387 PWs)   bands (ev):

     2.3025   8.4312   9.9544  16.7720  18.5816  26.0905  26.3316  27.4994

          k = 0.5357 0.5357 0.0000 (   387 PWs)   bands (ev):

     1.9595   8.7048  10.2298  17.0238  18.8514  25.7565  26.0714  27.2211

          k = 0.5179 0.5179 0.0000 (   387 PWs)   bands (ev):

     1.6268   8.9890  10.5146  17.2853  19.1297  25.4325  25.8200  26.9511

          k = 0.5000 0.5000 0.0000 (   379 PWs)   bands (ev):

     1.3045   9.2848  10.8093  17.5573  19.4172  25.1189  25.5776  26.6896

          k = 0.4821 0.4821 0.0000 (   383 PWs)   bands (ev):

     0.9927   9.5905  11.1124  17.8378  19.7119  24.8150  25.3438  26.4354

          k = 0.4643 0.4643 0.0000 (   383 PWs)   bands (ev):

     0.6916   9.9068  11.4244  18.1277  20.0145  24.5217  25.1196  26.1910

          k = 0.4464 0.4464 0.0000 (   383 PWs)   bands (ev):

     0.4012  10.2338  11.7449  18.4267  20.3246  24.2387  24.9048  25.9552

          k = 0.4286 0.4286 0.0000 (   387 PWs)   bands (ev):

     0.1215  10.5715  12.0737  18.7347  20.6419  23.9662  24.6985  25.7277

          k = 0.4107 0.4107 0.0000 (   383 PWs)   bands (ev):

    -0.1471  10.9206  12.4113  19.0513  20.9662  23.7046  24.5031  25.5093

          k = 0.3929 0.3929 0.0000 (   377 PWs)   bands (ev):

    -0.4049  11.2797  12.7568  19.3769  21.2980  23.4535  24.3180  25.2998

          k = 0.3750 0.3750 0.0000 (   385 PWs)   bands (ev):

    -0.6516  11.6488  13.1087  19.7085  21.6331  23.2129  24.1420  25.0977

          k = 0.3571 0.3571 0.0000 (   385 PWs)   bands (ev):

    -0.8873  12.0286  13.4679  20.0474  21.9749  22.9835  23.9791  24.9056

          k = 0.3393 0.3393 0.0000 (   385 PWs)   bands (ev):

    -1.1118  12.4189  13.8339  20.3916  22.3210  22.7650  23.8292  24.7222

          k = 0.3214 0.3214 0.0000 (   385 PWs)   bands (ev):

    -1.3251  12.8194  14.2062  20.7387  22.5575  22.6704  23.6941  24.5475

          k = 0.3036 0.3036 0.0000 (   381 PWs)   bands (ev):

    -1.5272  13.2309  14.5852  21.0856  22.3612  23.0220  23.5776  24.3814

          k = 0.2857 0.2857 0.0000 (   381 PWs)   bands (ev):

    -1.7180  13.6517  14.9689  21.4239  22.1757  23.3720  23.4863  24.2238

          k = 0.2679 0.2679 0.0000 (   381 PWs)   bands (ev):

    -1.8975  14.0824  15.3575  21.7414  22.0013  23.4328  23.7159  24.0746

          k = 0.2500 0.2500 0.0000 (   381 PWs)   bands (ev):

    -2.0655  14.5229  15.7505  21.8380  22.0146  23.4402  23.9335  24.0431

          k = 0.2321 0.2321 0.0000 (   377 PWs)   bands (ev):

    -2.2222  14.9732  16.1486  21.6859  22.2113  23.5402  23.8003  24.3250

          k = 0.2143 0.2143 0.0000 (   377 PWs)   bands (ev):

    -2.3674  15.4322  16.5483  21.5450  22.3144  23.6745  23.7486  24.4826

          k = 0.1964 0.1964 0.0000 (   377 PWs)   bands (ev):

    -2.5011  15.8999  16.9502  21.4152  22.3445  23.5551  24.0455  24.4539

          k = 0.1786 0.1786 0.0000 (   377 PWs)   bands (ev):

    -2.6233  16.3758  17.3534  21.2967  22.3312  23.4422  24.3076  24.3973

          k = 0.1607 0.1607 0.0000 (   377 PWs)   bands (ev):

    -2.7340  16.8590  17.7567  21.1894  22.2981  23.3340  24.1138  24.7798

          k = 0.1429 0.1429 0.0000 (   377 PWs)   bands (ev):

    -2.8330  17.3486  18.1589  21.0934  22.2574  23.2285  23.8956  25.1783

          k = 0.1250 0.1250 0.0000 (   377 PWs)   bands (ev):

    -2.9205  17.8429  18.5584  21.0086  22.2154  23.1228  23.6604  25.5828

          k = 0.1071 0.1071 0.0000 (   377 PWs)   bands (ev):

    -2.9963  18.3398  18.9531  20.9351  22.1757  23.0123  23.4111  25.9848

          k = 0.0893 0.0893 0.0000 (   373 PWs)   bands (ev):

    -3.0606  18.8370  19.3402  20.8735  22.1406  22.8905  23.1504  26.0222

          k = 0.0714 0.0714 0.0000 (   373 PWs)   bands (ev):

    -3.1131  19.3265  19.7147  20.8226  22.1105  22.7471  22.8805  25.5522

          k = 0.0536 0.0536 0.0000 (   371 PWs)   bands (ev):

    -3.1540  19.8003  20.0691  20.7836  22.0871  22.5716  22.6097  25.1568

          k = 0.0357 0.0357 0.0000 (   375 PWs)   bands (ev):

    -3.1832  20.2356  20.3868  20.7543  22.0690  22.3516  22.3627  24.8590

          k = 0.0179 0.0179 0.0000 (   385 PWs)   bands (ev):

    -3.2008  20.5834  20.6323  20.7368  22.0567  22.1416  22.1537  24.6757

          k = 0.0000 0.0000 0.0000 (   387 PWs)   bands (ev):

    -3.2066  20.7312  20.7312  20.7312  22.0532  22.0532  22.0532  24.6142

          k = 0.0147 0.0147 0.0147 (   384 PWs)   bands (ev):

    -3.2007  20.5490  20.7002  20.7002  22.0934  22.0934  22.1679  24.6770

          k = 0.0294 0.0294 0.0294 (   369 PWs)   bands (ev):

    -3.1828  20.1308  20.6171  20.6171  22.2061  22.2061  22.3792  24.8661

          k = 0.0441 0.0441 0.0441 (   375 PWs)   bands (ev):

    -3.1531  19.6130  20.4993  20.4993  22.3672  22.3672  22.5517  25.1753

          k = 0.0588 0.0588 0.0588 (   375 PWs)   bands (ev):

    -3.1115  19.0534  20.3653  20.3653  22.5625  22.5625  22.6575  25.5810

          k = 0.0735 0.0735 0.0735 (   375 PWs)   bands (ev):

    -3.0580  18.4724  20.2248  20.2248  22.7047  22.7801  22.7801  26.0501

          k = 0.0882 0.0882 0.0882 (   375 PWs)   bands (ev):

    -2.9927  17.8806  20.0838  20.0838  22.7106  23.0124  23.0124  26.4801

          k = 0.1029 0.1029 0.1029 (   375 PWs)   bands (ev):

    -2.9156  17.2841  19.9458  19.9458  22.6893  23.2523  23.2523  26.2005

          k = 0.1176 0.1176 0.1176 (   375 PWs)   bands (ev):

    -2.8266  16.6864  19.8129  19.8129  22.6504  23.4913  23.4913  25.9276

          k = 0.1324 0.1324 0.1324 (   369 PWs)   bands (ev):

    -2.7258  16.0901  19.6872  19.6872  22.6015  23.7173  23.7173  25.6792

          k = 0.1471 0.1471 0.1471 (   368 PWs)   bands (ev):

    -2.6133  15.4966  19.5684  19.5684  22.5462  23.8979  23.8979  25.4853

          k = 0.1618 0.1618 0.1618 (   368 PWs)   bands (ev):

    -2.4890  14.9074  19.4577  19.4577  22.4880  23.9863  23.9863  25.3970

          k = 0.1765 0.1765 0.1765 (   368 PWs)   bands (ev):

    -2.3529  14.3233  19.3555  19.3555  22.4298  23.9418  23.9418  25.4563

          k = 0.1912 0.1912 0.1912 (   368 PWs)   bands (ev):

    -2.2052  13.7451  19.2621  19.2621  22.3735  23.7848  23.7848  25.6437

          k = 0.2059 0.2059 0.2059 (   374 PWs)   bands (ev):

    -2.0459  13.1712  19.1776  19.1776  22.3203  23.5656  23.5656  25.9093

          k = 0.2206 0.2206 0.2206 (   380 PWs)   bands (ev):

    -1.8749  12.6064  19.1017  19.1017  22.2708  23.3171  23.3171  26.2194

          k = 0.2353 0.2353 0.2353 (   380 PWs)   bands (ev):

    -1.6924  12.0489  19.0358  19.0358  22.2282  23.0597  23.0597  26.5578

          k = 0.2500 0.2500 0.2500 (   380 PWs)   bands (ev):

    -1.4983  11.4991  18.9793  18.9793  22.1921  22.8000  22.8000  26.5985

          k = 0.2647 0.2647 0.2647 (   380 PWs)   bands (ev):

    -1.2928  10.9573  18.9322  18.9322  22.1631  22.5423  22.5423  26.3210

          k = 0.2794 0.2794 0.2794 (   380 PWs)   bands (ev):

    -1.0758  10.4237  18.8948  18.8948  22.1419  22.2892  22.2892  26.0506

          k = 0.2941 0.2941 0.2941 (   380 PWs)   bands (ev):

    -0.8474   9.8985  18.8669  18.8669  22.0424  22.0424  22.1288  25.7877

          k = 0.3088 0.3088 0.3088 (   383 PWs)   bands (ev):

    -0.6077   9.3812  18.8487  18.8487  21.8027  21.8027  22.1243  25.5325

          k = 0.3235 0.3235 0.3235 (   389 PWs)   bands (ev):

    -0.3568   8.8733  18.8392  18.8392  21.5706  21.5706  22.1273  25.2847

          k = 0.3382 0.3382 0.3382 (   389 PWs)   bands (ev):

    -0.0946   8.3747  18.8404  18.8404  21.3473  21.3473  22.1406  25.0468

          k = 0.3529 0.3529 0.3529 (   386 PWs)   bands (ev):

     0.1788   7.8852  18.8513  18.8513  21.1329  21.1329  22.1631  24.8179

          k = 0.3676 0.3676 0.3676 (   380 PWs)   bands (ev):

     0.4633   7.4050  18.8720  18.8720  20.9279  20.9279  22.1952  24.5986

          k = 0.3824 0.3824 0.3824 (   386 PWs)   bands (ev):

     0.7586   6.9337  18.9022  18.9022  20.7309  20.7309  22.2359  24.3879

          k = 0.3971 0.3971 0.3971 (   386 PWs)   bands (ev):

     1.0649   6.4726  18.9423  18.9423  20.5442  20.5442  22.2859  24.1882

          k = 0.4118 0.4118 0.4118 (   386 PWs)   bands (ev):

     1.3819   6.0213  18.9922  18.9922  20.3672  20.3672  22.3446  23.9992

          k = 0.4265 0.4265 0.4265 (   386 PWs)   bands (ev):

     1.7095   5.5799  19.0517  19.0517  20.1999  20.1999  22.4113  23.8220

          k = 0.4412 0.4412 0.4412 (   386 PWs)   bands (ev):

     2.0476   5.1488  19.1207  19.1207  20.0425  20.0425  22.4848  23.6578

          k = 0.4559 0.4559 0.4559 (   386 PWs)   bands (ev):

     2.3956   4.7283  19.1991  19.1991  19.8954  19.8954  22.5623  23.5096

          k = 0.4706 0.4706 0.4706 (   392 PWs)   bands (ev):

     2.7526   4.3195  19.2857  19.2857  19.7586  19.7586  22.6374  23.3826

          k = 0.4853 0.4853 0.4853 (   392 PWs)   bands (ev):

     3.1134   3.9276  19.3777  19.3777  19.6371  19.6371  22.6992  23.2905

          k = 0.5000 0.5000 0.5000 (   392 PWs)   bands (ev):

     3.3876   3.6430  19.4410  19.4410  19.5640  19.5640  22.7247  23.2548

          k = 0.4896 0.5208 0.4896 (   392 PWs)   bands (ev):

     3.3931   3.6488  19.1177  19.1779  19.7622  19.8373  22.7829  23.3381

          k = 0.4792 0.5417 0.4792 (   388 PWs)   bands (ev):

     3.4097   3.6663  18.6542  18.8721  19.8696  20.1748  22.9522  23.5780

          k = 0.4688 0.5625 0.4688 (   384 PWs)   bands (ev):

     3.4375   3.6953  18.1347  18.5745  19.8504  20.5236  23.1995  23.9530

          k = 0.4583 0.5833 0.4583 (   384 PWs)   bands (ev):

     3.4762   3.7359  17.5834  18.2867  19.7413  20.8824  23.4917  24.4353

          k = 0.4479 0.6042 0.4479 (   387 PWs)   bands (ev):

     3.5260   3.7880  17.0140  18.0085  19.5768  21.2515  23.8095  24.9959

          k = 0.4375 0.6250 0.4375 (   389 PWs)   bands (ev):

     3.5868   3.8516  16.4366  17.7402  19.3809  21.6307  24.1439  25.6110

          k = 0.4271 0.6458 0.4271 (   389 PWs)   bands (ev):

     3.6586   3.9266  15.8570  17.4825  19.1687  22.0200  24.4904  26.2641

          k = 0.4167 0.6667 0.4167 (   389 PWs)   bands (ev):

     3.7416   4.0130  15.2781  17.2349  18.9487  22.4192  24.8456  26.9446

          k = 0.4062 0.6875 0.4062 (   387 PWs)   bands (ev):

     3.8355   4.1107  14.7024  16.9975  18.7267  22.8285  25.2079  27.6456

          k = 0.3958 0.7083 0.3958 (   389 PWs)   bands (ev):

     3.9404   4.2195  14.1316  16.7699  18.5056  23.2474  25.5712  28.3605

          k = 0.3854 0.7292 0.3854 (   391 PWs)   bands (ev):

     4.0563   4.3394  13.5664  16.5526  18.2886  23.6759  25.9320  29.0736

          k = 0.3750 0.7500 0.3750 (   385 PWs)   bands (ev):

     4.1833   4.4702  13.0092  16.3459  18.0778  24.1154  26.2829  28.9690

          k = 0.3646 0.7708 0.3646 (   387 PWs)   bands (ev):

     4.3210   4.6116  12.4599  16.1486  17.8727  24.5627  26.5975  28.6023

          k = 0.3542 0.7917 0.3542 (   386 PWs)   bands (ev):

     4.4696   4.7633  11.9196  15.9618  17.6756  25.0194  26.8232  28.3303

          k = 0.3438 0.8125 0.3438 (   388 PWs)   bands (ev):

     4.6290   4.9252  11.3876  15.7851  17.4865  25.4853  26.8501  28.2603

          k = 0.3333 0.8333 0.3333 (   388 PWs)   bands (ev):

     4.7988   5.0966  10.8675  15.6186  17.3062  25.9593  26.6472  28.4267

          k = 0.3229 0.8542 0.3229 (   389 PWs)   bands (ev):

     4.9790   5.2768  10.3587  15.4622  17.1351  26.3193  26.4413  28.7229

          k = 0.3125 0.8750 0.3125 (   389 PWs)   bands (ev):

     5.1690   5.4650   9.8634  15.3159  16.9734  25.9435  26.9307  29.0706

          k = 0.3021 0.8958 0.3021 (   388 PWs)   bands (ev):

     5.3681   5.6594   9.3838  15.1796  16.8214  25.5503  27.4264  29.4391

          k = 0.2917 0.9167 0.2917 (   388 PWs)   bands (ev):

     5.5745   5.8577   8.9242  15.0535  16.6793  25.1520  27.9268  29.8087

          k = 0.2812 0.9375 0.2812 (   388 PWs)   bands (ev):

     5.7836   6.0558   8.4932  14.9375  16.5473  24.7542  28.4287  30.1702

          k = 0.2708 0.9583 0.2708 (   386 PWs)   bands (ev):

     5.9820   6.2496   8.1085  14.8315  16.4254  24.3599  28.9246  30.2574

          k = 0.2604 0.9792 0.2604 (   387 PWs)   bands (ev):

     6.1261   6.4439   7.8085  14.7356  16.3138  23.9709  29.3888  30.2254

          k = 0.2500 1.0000 0.2500 (   391 PWs)   bands (ev):

     6.1308   6.6611   7.6561  14.6491  16.2119  23.5882  29.7186  30.3374

          k = 0.2679 1.0000 0.2321 (   385 PWs)   bands (ev):

     6.1362   6.6662   7.6613  14.4626  16.4085  23.5932  29.6596  30.0774

          k = 0.2857 1.0000 0.2143 (   385 PWs)   bands (ev):

     6.1523   6.6814   7.6768  14.0512  16.8453  23.6075  29.4905  29.6223

          k = 0.3036 1.0000 0.1964 (   387 PWs)   bands (ev):

     6.1791   6.7066   7.7024  13.5654  17.3727  23.6312  29.1340  29.2404

          k = 0.3214 1.0000 0.1786 (   386 PWs)   bands (ev):

     6.2166   6.7418   7.7381  13.0586  17.9398  23.6644  28.6378  28.9407

          k = 0.3393 1.0000 0.1607 (   386 PWs)   bands (ev):

     6.2648   6.7865   7.7835  12.5479  18.5274  23.7069  28.1406  28.6094

          k = 0.3571 1.0000 0.1429 (   384 PWs)   bands (ev):

     6.3238   6.8408   7.8379  12.0415  19.1287  23.7584  27.6456  28.2598

          k = 0.3750 1.0000 0.1250 (   385 PWs)   bands (ev):

     6.3935   6.9034   7.9004  11.5439  19.7394  23.8185  27.1545  27.9008

          k = 0.3929 1.0000 0.1071 (   383 PWs)   bands (ev):

     6.4739   6.9737   7.9698  11.0598  20.3576  23.8870  26.6687  27.5391

          k = 0.4107 1.0000 0.0893 (   387 PWs)   bands (ev):

     6.5651   7.0498   8.0432  10.5934  20.9789  23.9629  26.1886  27.1794

          k = 0.4286 1.0000 0.0714 (   387 PWs)   bands (ev):

     6.6669   7.1286   8.1161  10.1556  21.6009  24.0445  25.7157  26.8309

          k = 0.4464 1.0000 0.0536 (   387 PWs)   bands (ev):

     6.7795   7.2034   8.1795   9.7610  22.2187  24.1286  25.2502  26.5016

          k = 0.4643 1.0000 0.0357 (   387 PWs)   bands (ev):

     6.9028   7.2604   8.2172   9.4402  22.8234  24.2080  24.7925  26.2079

          k = 0.4821 1.0000 0.0179 (   387 PWs)   bands (ev):

     7.0369   7.2694   8.2147   9.2379  23.3979  24.2677  24.3430  25.9826

          k = 0.5000 1.0000 0.0000 (   396 PWs)   bands (ev):

     7.1815   7.1815   8.1988   9.1758  23.9010  23.9010  24.2836  25.8857

          k = 0.5000 0.9821 0.0179 (   388 PWs)   bands (ev):

     7.1023   7.1396   8.2891   9.2278  23.7741  23.8673  24.4221  25.9294

          k = 0.5000 0.9643 0.0357 (   388 PWs)   bands (ev):

     6.9168   7.0247   8.5071   9.3719  23.5561  23.7716  24.6673  26.0453

          k = 0.5000 0.9464 0.0536 (   388 PWs)   bands (ev):

     6.6906   6.8606   8.7873   9.5848  23.3296  23.6317  24.9392  26.2185

          k = 0.5000 0.9286 0.0714 (   388 PWs)   bands (ev):

     6.4531   6.6683   9.1005   9.8453  23.1070  23.4643  25.2253  26.4319

          k = 0.5000 0.9107 0.0893 (   388 PWs)   bands (ev):

     6.2156   6.4621   9.4353  10.1391  22.8913  23.2817  25.5224  26.6724

          k = 0.5000 0.8929 0.1071 (   388 PWs)   bands (ev):

     5.9829   6.2508   9.7867  10.4575  22.6837  23.0919  25.8294  26.9309

          k = 0.5000 0.8750 0.1250 (   392 PWs)   bands (ev):

     5.7575   6.0394  10.1523  10.7949  22.4839  22.8998  26.1455  27.2005

          k = 0.5000 0.8571 0.1429 (   386 PWs)   bands (ev):

     5.5408   5.8318  10.5317  11.1488  22.2934  22.7095  26.4714  27.4759

          k = 0.5000 0.8393 0.1607 (   386 PWs)   bands (ev):

     5.3334   5.6297  10.9222  11.5153  22.1117  22.5225  26.8048  27.7472

          k = 0.5000 0.8214 0.1786 (   386 PWs)   bands (ev):

     5.1358   5.4346  11.3240  11.8936  21.9389  22.3407  27.1464  28.0043

          k = 0.5000 0.8036 0.1964 (   384 PWs)   bands (ev):

     4.9483   5.2477  11.7373  12.2828  21.7749  22.1651  27.4957  28.2254

          k = 0.5000 0.7857 0.2143 (   386 PWs)   bands (ev):

     4.7710   5.0694  12.1608  12.6814  21.6196  21.9961  27.8520  28.3662

          k = 0.5000 0.7679 0.2321 (   384 PWs)   bands (ev):

     4.6041   4.9006  12.5949  13.0900  21.4727  21.8344  28.2152  28.3509

          k = 0.5000 0.7500 0.2500 (   384 PWs)   bands (ev):

     4.4479   4.7415  13.0386  13.5058  21.3348  21.6802  28.1353  28.5831

          k = 0.5000 0.7321 0.2679 (   384 PWs)   bands (ev):

     4.3022   4.5924  13.4918  13.9291  21.2052  21.5338  27.7672  28.9520

          k = 0.5000 0.7143 0.2857 (   384 PWs)   bands (ev):

     4.1672   4.4537  13.9541  14.3592  21.0838  21.3949  27.3196  29.2603

          k = 0.5000 0.6964 0.3036 (   388 PWs)   bands (ev):

     4.0428   4.3254  14.4248  14.7955  20.9697  21.2632  26.8341  28.7445

          k = 0.5000 0.6786 0.3214 (   386 PWs)   bands (ev):

     3.9292   4.2079  14.9037  15.2372  20.8635  21.1391  26.3358  28.0556

          k = 0.5000 0.6607 0.3393 (   384 PWs)   bands (ev):

     3.8264   4.1012  15.3889  15.6840  20.7635  21.0201  25.8347  27.3770

          k = 0.5000 0.6429 0.3571 (   386 PWs)   bands (ev):

     3.7344   4.0055  15.8794  16.1331  20.6688  20.9055  25.3366  26.7167

          k = 0.5000 0.6250 0.3750 (   386 PWs)   bands (ev):

     3.6532   3.9209  16.3734  16.5839  20.5777  20.7927  24.8522  26.0797

          k = 0.5000 0.6071 0.3929 (   384 PWs)   bands (ev):

     3.5828   3.8474  16.8688  17.0347  20.4874  20.6789  24.3872  25.4718

          k = 0.5000 0.5893 0.4107 (   382 PWs)   bands (ev):

     3.5232   3.7850  17.3611  17.4829  20.3935  20.5574  23.9507  24.9013

          k = 0.5000 0.5714 0.4286 (   380 PWs)   bands (ev):

     3.4744   3.7340  17.8450  17.9254  20.2890  20.4207  23.5553  24.3807

          k = 0.5000 0.5536 0.4464 (   386 PWs)   bands (ev):

     3.4364   3.6942  18.3128  18.3550  20.1616  20.2578  23.2145  23.9282

          k = 0.5000 0.5357 0.4643 (   388 PWs)   bands (ev):

     3.4093   3.6658  18.7535  18.7661  19.9995  20.0576  22.9507  23.5699

          k = 0.5000 0.5179 0.4821 (   392 PWs)   bands (ev):

     3.3930   3.6487  19.1486  19.1513  19.7878  19.8095  22.7818  23.3363

          k = 0.5000 0.5000 0.5000 (   392 PWs)   bands (ev):

     3.3876   3.6430  19.4410  19.4410  19.5640  19.5640  22.7247  23.2548

          k = 0.5104 0.5104 0.4792 (   392 PWs)   bands (ev):

     3.3931   3.6488  19.1177  19.1779  19.7622  19.8373  22.7829  23.3381

          k = 0.5208 0.5208 0.4583 (   388 PWs)   bands (ev):

     3.4097   3.6663  18.6542  18.8721  19.8696  20.1748  22.9522  23.5780

          k = 0.5312 0.5312 0.4375 (   384 PWs)   bands (ev):

     3.4375   3.6953  18.1347  18.5745  19.8504  20.5236  23.1995  23.9530

          k = 0.5417 0.5417 0.4167 (   384 PWs)   bands (ev):

     3.4762   3.7359  17.5834  18.2867  19.7413  20.8824  23.4917  24.4353

          k = 0.5521 0.5521 0.3958 (   387 PWs)   bands (ev):

     3.5260   3.7880  17.0140  18.0085  19.5768  21.2515  23.8095  24.9959

          k = 0.5625 0.5625 0.3750 (   389 PWs)   bands (ev):

     3.5868   3.8516  16.4366  17.7402  19.3809  21.6307  24.1439  25.6110

          k = 0.5729 0.5729 0.3542 (   389 PWs)   bands (ev):

     3.6586   3.9266  15.8570  17.4825  19.1687  22.0200  24.4904  26.2641

          k = 0.5833 0.5833 0.3333 (   389 PWs)   bands (ev):

     3.7416   4.0130  15.2781  17.2349  18.9487  22.4192  24.8456  26.9446

          k = 0.5938 0.5938 0.3125 (   387 PWs)   bands (ev):

     3.8355   4.1107  14.7024  16.9975  18.7267  22.8285  25.2079  27.6456

          k = 0.6042 0.6042 0.2917 (   389 PWs)   bands (ev):

     3.9404   4.2195  14.1316  16.7699  18.5056  23.2474  25.5712  28.3605

          k = 0.6146 0.6146 0.2708 (   391 PWs)   bands (ev):

     4.0563   4.3394  13.5664  16.5526  18.2886  23.6759  25.9320  29.0736

          k = 0.6250 0.6250 0.2500 (   385 PWs)   bands (ev):

     4.1833   4.4702  13.0092  16.3459  18.0778  24.1154  26.2829  28.9690

          k = 0.6354 0.6354 0.2292 (   387 PWs)   bands (ev):

     4.3210   4.6116  12.4599  16.1486  17.8727  24.5627  26.5975  28.6023

          k = 0.6458 0.6458 0.2083 (   386 PWs)   bands (ev):

     4.4696   4.7633  11.9196  15.9618  17.6756  25.0194  26.8232  28.3303

          k = 0.6562 0.6562 0.1875 (   388 PWs)   bands (ev):

     4.6290   4.9252  11.3876  15.7851  17.4865  25.4853  26.8501  28.2603

          k = 0.6667 0.6667 0.1667 (   388 PWs)   bands (ev):

     4.7988   5.0966  10.8675  15.6186  17.3062  25.9593  26.6472  28.4267

          k = 0.6771 0.6771 0.1458 (   389 PWs)   bands (ev):

     4.9790   5.2768  10.3587  15.4622  17.1351  26.3193  26.4413  28.7229

          k = 0.6875 0.6875 0.1250 (   389 PWs)   bands (ev):

     5.1690   5.4650   9.8634  15.3159  16.9734  25.9435  26.9307  29.0706

          k = 0.6979 0.6979 0.1042 (   388 PWs)   bands (ev):

     5.3681   5.6594   9.3838  15.1796  16.8214  25.5503  27.4264  29.4391

          k = 0.7083 0.7083 0.0833 (   388 PWs)   bands (ev):

     5.5745   5.8577   8.9242  15.0535  16.6793  25.1520  27.9268  29.8087

          k = 0.7188 0.7188 0.0625 (   388 PWs)   bands (ev):

     5.7836   6.0558   8.4932  14.9375  16.5473  24.7542  28.4287  30.1702

          k = 0.7292 0.7292 0.0417 (   386 PWs)   bands (ev):

     5.9820   6.2496   8.1085  14.8315  16.4254  24.3599  28.9246  30.2574

          k = 0.7396 0.7396 0.0208 (   387 PWs)   bands (ev):

     6.1261   6.4439   7.8085  14.7356  16.3138  23.9709  29.3888  30.2254

          k = 0.7500 0.7500 0.0000 (   391 PWs)   bands (ev):

     6.1308   6.6611   7.6561  14.6491  16.2119  23.5882  29.7186  30.3374

     Writing all to output data dir /Users/zhy/Aluminum-from-First-Principles/qe-out/a5-bands/aluminum_a5_bands.save/ :
     XML data file, pseudopotentials, collected wavefunctions

     init_run     :      0.21s CPU      0.21s WALL (       1 calls)
     electrons    :      2.94s CPU      3.04s WALL (       1 calls)

     Called by init_run:
     wfcinit      :      0.00s CPU      0.00s WALL (       1 calls)
     wfcinit:atom :      0.00s CPU      0.00s WALL (     240 calls)
     wfcinit:wfcr :      0.15s CPU      0.15s WALL (     240 calls)
     potinit      :      0.10s CPU      0.10s WALL (       1 calls)
     hinit0       :      0.11s CPU      0.11s WALL (       1 calls)

     Called by electrons:
     c_bands      :      2.94s CPU      3.04s WALL (       1 calls)
     v_of_rho     :      0.00s CPU      0.00s WALL (       1 calls)
     v_h          :      0.00s CPU      0.00s WALL (       1 calls)
     v_xc         :      0.00s CPU      0.00s WALL (       1 calls)
     newd         :      0.00s CPU      0.00s WALL (       1 calls)

     Called by c_bands:
     init_us_2    :      0.00s CPU      0.00s WALL (     240 calls)
     cegterg      :      2.77s CPU      2.87s WALL (     379 calls)

     Called by sum_band:

     Called by *egterg:
     cdiaghg      :      0.24s CPU      0.25s WALL (    5743 calls)
     cegterg:over :      0.07s CPU      0.08s WALL (    5503 calls)
     cegterg:upda :      0.03s CPU      0.04s WALL (    5503 calls)
     cegterg:last :      0.08s CPU      0.09s WALL (    4051 calls)
     h_psi        :      2.43s CPU      2.51s WALL (    6122 calls)
     s_psi        :      0.01s CPU      0.01s WALL (    6122 calls)
     g_psi        :      0.01s CPU      0.01s WALL (    5503 calls)

     Called by h_psi:
     h_psi:calbec :      0.02s CPU      0.02s WALL (    6122 calls)
     vloc_psi     :      2.39s CPU      2.46s WALL (    6122 calls)
     add_vuspsi   :      0.01s CPU      0.01s WALL (    6122 calls)

     General routines
     calbec       :      0.02s CPU      0.02s WALL (    6122 calls)
     fft          :      0.08s CPU      0.08s WALL (      13 calls)
     ffts         :      0.09s CPU      0.09s WALL (       1 calls)
     fftw         :      2.15s CPU      2.20s WALL (   66524 calls)
     interpolate  :      0.09s CPU      0.09s WALL (       1 calls)
     davcio       :      0.00s CPU      0.00s WALL (     480 calls)

     Parallel routines

     PWSCF        :      3.20s CPU      3.35s WALL


   This run was terminated on:   2:15:52  26Sep2026            

=------------------------------------------------------------------------------=
   JOB DONE.
=------------------------------------------------------------------------------=
Note: The following floating-point exceptions are signalling: IEEE_UNDERFLOW_FLAG
Note: The following floating-point exceptions are signalling: IEEE_INVALID_FLAG IEEE_DIVIDE_BY_ZERO IEEE_UNDERFLOW_FLAG
