
     Program PWSCF v.7.6 starts on 26Sep2026 at  2:49:38 

     This program is part of the open-source Quantum ESPRESSO suite
     for quantum simulation of materials; please cite
         "P. Giannozzi et al., J. Phys.:Condens. Matter 21 395502 (2009);
         "P. Giannozzi et al., J. Phys.:Condens. Matter 29 465901 (2017);
         "P. Giannozzi et al., J. Chem. Phys. 152 154105 (2020);
          URL http://www.quantum-espresso.org", 
     in publications or presentations arising from this work. More details at
     http://www.quantum-espresso.org/quote

     Parallel version (MPI), running on     2 processors

     MPI processes distributed on     1 nodes
     0 MiB available memory on the printing compute node when the environment starts

     Reading input from Al.dos.nscf.inp

     Current dimensions of program PWSCF are:
     Max number of different atomic species (ntypx) = 10
     Max number of k-points (npk) =  40000
     Max angular momentum in pseudopotentials (lmaxx) =  4

     Atomic positions and unit cell read from directory:
     /Users/zhy/Aluminum-from-First-Principles/qe-out/a5-bands/aluminum_a5_bands.save/


     R & G space division:  proc/nbgrp/npool/nimage =       2
     Subspace diagonalization in iterative solution of the eigenvalue problem:
     a serial algorithm will be used


     Parallelization info
     --------------------
     sticks:   dense  smooth     PW     G-vecs:    dense   smooth      PW
     Min         279     141     48                 4327     1559     322
     Max         280     142     49                 4330     1560     323
     Sum         559     283     97                 8657     3119     645

     Using Slab Decomposition



     bravais-lattice index     =            2
     lattice parameter (alat)  =       7.6061  a.u.
     unit-cell volume          =     110.0075 (a.u.)^3
     number of atoms/cell      =            1
     number of atomic types    =            1
     number of electrons       =         3.00
     number of Kohn-Sham states=           12
     kinetic-energy cutoff     =      35.0000  Ry
     charge density cutoff     =     280.0000  Ry
     Exchange-correlation= SLA  PW   PBE  PBE
                           (   1   4   3   4   0   0   0)

     celldm(1)=   7.606077  celldm(2)=   0.000000  celldm(3)=   0.000000
     celldm(4)=   0.000000  celldm(5)=   0.000000  celldm(6)=   0.000000

     crystal axes: (cart. coord. in units of alat)
               a(1) = (  -0.500000   0.000000   0.500000 )  
               a(2) = (   0.000000   0.500000   0.500000 )  
               a(3) = (  -0.500000   0.500000   0.000000 )  

     reciprocal axes: (cart. coord. in units 2 pi/alat)
               b(1) = ( -1.000000 -1.000000  1.000000 )  
               b(2) = (  1.000000  1.000000  1.000000 )  
               b(3) = ( -1.000000  1.000000 -1.000000 )  


     PseudoPot. # 1 for Al read from file:
     /Users/zhy/Aluminum-from-First-Principles/Al.pbe-n-van.UPF
     MD5 check sum: cbc97ad259b400557db688b98a6ada97
     Pseudo is Ultrasoft + core correction, Zval =  3.0
     Generated by new atomic code, or converted to UPF format
     Using radial grid of  893 points,  2 beta functions with: 
                l(1) =   0
                l(2) =   1
     Q(r) pseudized with  8 coefficients,  rinner =    0.900   0.900   0.900


     atomic species   valence    mass     pseudopotential
     Al                3.00    26.98200     Al( 1.00)

     48 Sym. Ops., with inversion, found



   Cartesian axes

     site n.     atom                  positions (alat units)
         1        Al     tau(   1) = (   0.0000000   0.0000000   0.0000000  )

     number of k points=   413 (tetrahedron method)

     Number of k-points >= 100: set verbosity='high' to print them.

     Dense  grid:     8657 G-vectors     FFT dimensions: (  30,  30,  30)

     Smooth grid:     3119 G-vectors     FFT dimensions: (  24,  24,  24)

     Estimated max dynamical RAM per process >       2.83 MB

     Estimated total dynamical RAM >       5.66 MB

     The potential is recalculated from file :
     /Users/zhy/Aluminum-from-First-Principles/qe-out/a5-bands/aluminum_a5_bands.save/charge-density

     Starting wfcs are    4 randomized atomic wfcs +    8 random wfcs

     Band Structure Calculation
     Davidson diagonalization with overlap

     ethr =  3.33E-08,  avg # of iterations = 21.7

     total cpu time spent up to now is        9.4 secs

     End of band structure calculation

     Number of k-points >= 100: set verbosity='high' to print the bands.

     the Fermi energy is     8.0709 ev
     (compare with:     8.0785 eV, computed in scf)

     Writing all to output data dir /Users/zhy/Aluminum-from-First-Principles/qe-out/a5-bands/aluminum_a5_bands.save/ :
     XML data file, pseudopotentials, collected wavefunctions

     init_run     :      0.22s CPU      0.27s WALL (       1 calls)
     electrons    :      7.76s CPU      8.11s WALL (       1 calls)

     Called by init_run:
     wfcinit      :      0.00s CPU      0.00s WALL (       1 calls)
     potinit      :      0.10s CPU      0.14s WALL (       1 calls)
     hinit0       :      0.11s CPU      0.11s WALL (       1 calls)

     Called by electrons:
     c_bands      :      7.01s CPU      7.35s WALL (       1 calls)
     v_of_rho     :      0.00s CPU      0.00s WALL (       1 calls)
     newd         :      0.00s CPU      0.00s WALL (       1 calls)

     Called by c_bands:
     init_us_2    :      0.01s CPU      0.01s WALL (     413 calls)
     cegterg      :      6.56s CPU      6.85s WALL (     596 calls)

     Called by *egterg:
     cdiaghg      :      0.90s CPU      0.93s WALL (    9356 calls)
     h_psi        :      5.38s CPU      5.63s WALL (    9952 calls)
     s_psi        :      0.03s CPU      0.03s WALL (    9952 calls)
     g_psi        :      0.01s CPU      0.01s WALL (    8943 calls)

     Called by h_psi:
     h_psi:calbec :      0.04s CPU      0.05s WALL (    9952 calls)
     vloc_psi     :      5.29s CPU      5.52s WALL (    9952 calls)
     add_vuspsi   :      0.03s CPU      0.03s WALL (    9952 calls)

     General routines
     calbec       :      0.04s CPU      0.04s WALL (    9952 calls)
     fft          :      0.08s CPU      0.09s WALL (      13 calls)
     ffts         :      0.10s CPU      0.14s WALL (       1 calls)
     fftw         :      4.78s CPU      4.97s WALL (  141162 calls)
     interpolate  :      0.10s CPU      0.14s WALL (       1 calls)
     davcio       :      0.00s CPU      0.02s WALL (     826 calls)

     Parallel routines

     PWSCF        :      9.02s CPU      9.60s WALL


   This run was terminated on:   2:49:47  26Sep2026            

=------------------------------------------------------------------------------=
   JOB DONE.
=------------------------------------------------------------------------------=
Note: The following floating-point exceptions are signalling: IEEE_INVALID_FLAG IEEE_DIVIDE_BY_ZERO
