
     Program PWSCF v.7.6 starts on 24Sep2026 at 14:47:17 

     This program is part of the open-source Quantum ESPRESSO suite
     for quantum simulation of materials; please cite
         "P. Giannozzi et al., J. Phys.:Condens. Matter 21 395502 (2009);
         "P. Giannozzi et al., J. Phys.:Condens. Matter 29 465901 (2017);
         "P. Giannozzi et al., J. Chem. Phys. 152 154105 (2020);
          URL http://www.quantum-espresso.org", 
     in publications or presentations arising from this work. More details at
     http://www.quantum-espresso.org/quote

     Parallel version (MPI), running on     2 processors

     MPI processes distributed on     1 nodes
     0 MiB available memory on the printing compute node when the environment starts

     Reading input from Al.relax.inp

     Current dimensions of program PWSCF are:
     Max number of different atomic species (ntypx) = 10
     Max number of k-points (npk) =  40000
     Max angular momentum in pseudopotentials (lmaxx) =  4

     R & G space division:  proc/nbgrp/npool/nimage =       2
     Subspace diagonalization in iterative solution of the eigenvalue problem:
     a serial algorithm will be used


     Parallelization info
     --------------------
     sticks:   dense  smooth     PW     G-vecs:    dense   smooth      PW
     Min         384     189     63                 7164     2513     482
     Max         385     190     64                 7167     2516     483
     Sum         769     379    127                14331     5029     965

     Using Slab Decomposition



     bravais-lattice index     =            2
     lattice parameter (alat)  =       9.0000  a.u.
     unit-cell volume          =     182.2500 (a.u.)^3
     number of atoms/cell      =            1
     number of atomic types    =            1
     number of electrons       =         3.00
     number of Kohn-Sham states=            6
     kinetic-energy cutoff     =      35.0000  Ry
     charge density cutoff     =     280.0000  Ry
     scf convergence threshold =      1.0E-08
     mixing beta               =       0.7000
     number of iterations used =            8  plain     mixing
     energy convergence thresh.=      1.0E-04
     force convergence thresh. =      1.0E-03
     press convergence thresh. =      5.0E-01
     Exchange-correlation= SLA  PW   PBE  PBE
                           (   1   4   3   4   0   0   0)
     nstep                     =           50


     celldm(1)=   9.000000  celldm(2)=   0.000000  celldm(3)=   0.000000
     celldm(4)=   0.000000  celldm(5)=   0.000000  celldm(6)=   0.000000

     crystal axes: (cart. coord. in units of alat)
               a(1) = (  -0.500000   0.000000   0.500000 )  
               a(2) = (   0.000000   0.500000   0.500000 )  
               a(3) = (  -0.500000   0.500000   0.000000 )  

     reciprocal axes: (cart. coord. in units 2 pi/alat)
               b(1) = ( -1.000000 -1.000000  1.000000 )  
               b(2) = (  1.000000  1.000000  1.000000 )  
               b(3) = ( -1.000000  1.000000 -1.000000 )  


     PseudoPot. # 1 for Al read from file:
     /Users/zhy/Aluminum-from-First-Principles/Al.pbe-n-van.UPF
     MD5 check sum: cbc97ad259b400557db688b98a6ada97
     Pseudo is Ultrasoft + core correction, Zval =  3.0
     Generated by new atomic code, or converted to UPF format
     Using radial grid of  893 points,  2 beta functions with: 
                l(1) =   0
                l(2) =   1
     Q(r) pseudized with  8 coefficients,  rinner =    0.900   0.900   0.900


     atomic species   valence    mass     pseudopotential
     Al                3.00    26.98200     Al( 1.00)

     48 Sym. Ops., with inversion, found



   Cartesian axes

     site n.     atom                  positions (alat units)
         1        Al     tau(   1) = (   0.0000000   0.0000000   0.0000000  )

     number of k points=   145  Methfessel-Paxton smearing, width (Ry)=  0.0100

     Number of k-points >= 100: set verbosity='high' to print them.

     Dense  grid:    14331 G-vectors     FFT dimensions: (  36,  36,  36)

     Smooth grid:     5029 G-vectors     FFT dimensions: (  24,  24,  24)

     Estimated max dynamical RAM per process >      11.67 MB

     Estimated total dynamical RAM >      23.34 MB

     Initial potential from superposition of free atoms

     starting charge       2.9975, renormalised to       3.0000
     Starting wfcs are    4 randomized atomic wfcs +    2 random wfcs

     total cpu time spent up to now is        0.5 secs

     Self-consistent Calculation

     iteration #  1     ecut=    35.00 Ry     beta= 0.70
     Davidson diagonalization with overlap
     ethr =  1.00E-02,  avg # of iterations =  5.3

     Threshold (ethr) on eigenvalues was too large:
     Diagonalizing with lowered threshold

     Davidson diagonalization with overlap
     ethr =  1.80E-04,  avg # of iterations =  3.0

     total cpu time spent up to now is        1.1 secs

     total energy              =     -12.41922120 Ry
     estimated scf accuracy    <       0.00523612 Ry

     iteration #  2     ecut=    35.00 Ry     beta= 0.70
     Davidson diagonalization with overlap
     ethr =  1.75E-04,  avg # of iterations =  1.0

     total cpu time spent up to now is        1.3 secs

     total energy              =     -12.41935241 Ry
     estimated scf accuracy    <       0.00024157 Ry

     iteration #  3     ecut=    35.00 Ry     beta= 0.70
     Davidson diagonalization with overlap
     ethr =  8.05E-06,  avg # of iterations =  3.5

     total cpu time spent up to now is        1.6 secs

     total energy              =     -12.41938648 Ry
     estimated scf accuracy    <       0.00000110 Ry

     iteration #  4     ecut=    35.00 Ry     beta= 0.70
     Davidson diagonalization with overlap
     ethr =  3.68E-08,  avg # of iterations =  3.0

     total cpu time spent up to now is        1.8 secs

     total energy              =     -12.41938790 Ry
     estimated scf accuracy    <       0.00000006 Ry

     iteration #  5     ecut=    35.00 Ry     beta= 0.70
     Davidson diagonalization with overlap
     ethr =  2.11E-09,  avg # of iterations =  1.4

     total cpu time spent up to now is        2.1 secs

     End of self-consistent calculation

     Number of k-points >= 100: set verbosity='high' to print the bands.

     the Fermi energy is     3.6229 ev

!    total energy              =     -12.41938791 Ry
     estimated scf accuracy    <          1.7E-09 Ry
     smearing contrib. (-TS)   =      -0.00003851 Ry
     internal energy E=F+TS    =     -12.41934940 Ry

     The total energy is F=E-TS. E is the sum of the following terms:
     one-electron contribution =       1.95935943 Ry
     hartree contribution      =       0.02511890 Ry
     xc contribution           =      -9.81896566 Ry
     ewald contribution        =      -4.58486207 Ry

     convergence has been achieved in   5 iterations

     Forces acting on atoms (cartesian axes, Ry/au):

     atom    1 type  1   force =     0.00000000    0.00000000    0.00000000

     Total force =     0.000000     Total SCF correction =     0.000000


     Computing stress (Cartesian axis) and pressure

          total   stress  (Ry/bohr**3)                   (kbar)     P=     -116.42
  -0.00079141   0.00000000   0.00000000         -116.42        0.00        0.00
   0.00000000  -0.00079141  -0.00000000            0.00     -116.42       -0.00
   0.00000000  -0.00000000  -0.00079141            0.00       -0.00     -116.42


     BFGS Geometry Optimization
     Energy error            =      8.6E-03 Ry
     Gradient error          =      0.0E+00 Ry/Bohr
     Cell gradient error     =      1.2E+02 kbar

     number of scf cycles    =   1
     number of bfgs steps    =   0

     enthalpy           new  =     -12.4193879085 Ry

     new trust radius        =       0.0534200723 bohr
     new conv_thr            =       0.0000000100 Ry

     new unit-cell volume =    171.64505 a.u.^3 (    25.43517 Ang^3 )
     density =      1.76152 g/cm^3

CELL_PARAMETERS (alat=  9.00000000)
  -0.490107394  -0.000000000   0.490107394
   0.000000000   0.490107394   0.490107394
  -0.490107394   0.490107394  -0.000000000

ATOMIC_POSITIONS (alat)
Al               0.0000000000        0.0000000000        0.0000000000



     Writing config-only to output data dir /Users/zhy/Aluminum-from-First-Principles/qe-out/a3-relax/aluminum_relax.save/ :
     XML data file
     NEW-OLD atomic charge density approx. for the potential
     New effective cutoffs (rho, wfc):  289.65   36.42

     total cpu time spent up to now is        2.1 secs

     Self-consistent Calculation

     iteration #  1     ecut=    35.00 Ry     beta= 0.70
     Davidson diagonalization with overlap
     ethr =  1.00E-06,  avg # of iterations =  4.8

     Threshold (ethr) on eigenvalues was too large:
     Diagonalizing with lowered threshold

     Davidson diagonalization with overlap
     ethr =  6.93E-08,  avg # of iterations =  1.7

     total cpu time spent up to now is        2.8 secs

     total energy              =     -12.42789489 Ry
     estimated scf accuracy    <       0.00000209 Ry

     iteration #  2     ecut=    35.00 Ry     beta= 0.70
     Davidson diagonalization with overlap
     ethr =  6.97E-08,  avg # of iterations =  1.0

     total cpu time spent up to now is        3.0 secs

     total energy              =     -12.42789507 Ry
     estimated scf accuracy    <       0.00000015 Ry

     iteration #  3     ecut=    35.00 Ry     beta= 0.70
     Davidson diagonalization with overlap
     ethr =  4.85E-09,  avg # of iterations =  1.6

     total cpu time spent up to now is        3.2 secs

     End of self-consistent calculation

     Number of k-points >= 100: set verbosity='high' to print the bands.

     the Fermi energy is     4.0789 ev

!    total energy              =     -12.42789509 Ry
     estimated scf accuracy    <          8.7E-10 Ry
     smearing contrib. (-TS)   =      -0.00002652 Ry
     internal energy E=F+TS    =     -12.42786857 Ry

     The total energy is F=E-TS. E is the sum of the following terms:
     one-electron contribution =       2.06935710 Ry
     hartree contribution      =       0.01971221 Ry
     xc contribution           =      -9.83953235 Ry
     ewald contribution        =      -4.67740553 Ry

     convergence has been achieved in   3 iterations

     Forces acting on atoms (cartesian axes, Ry/au):

     atom    1 type  1   force =     0.00000000    0.00000000    0.00000000

     Total force =     0.000000     Total SCF correction =     0.000000


     Computing stress (Cartesian axis) and pressure

          total   stress  (Ry/bohr**3)                   (kbar)     P=     -119.30
  -0.00081098   0.00000000   0.00000000         -119.30        0.00        0.00
   0.00000000  -0.00081098  -0.00000000            0.00     -119.30       -0.00
   0.00000000  -0.00000000  -0.00081098            0.00       -0.00     -119.30

     Energy error            =      8.5E-03 Ry
     Gradient error          =      0.0E+00 Ry/Bohr
     Cell gradient error     =      1.2E+02 kbar

     number of scf cycles    =   2
     number of bfgs steps    =   1

     enthalpy           old  =     -12.4193879085 Ry
     enthalpy           new  =     -12.4278950865 Ry

     CASE: enthalpy          _new < enthalpy          _old


     WARNING: bfgs curvature condition failed, Theta= 0.813
     new trust radius        =       0.0793334527 bohr
     new conv_thr            =            1.0E-10 Ry

     new unit-cell volume =    156.52171 a.u.^3 (    23.19412 Ang^3 )
     density =      1.93172 g/cm^3

CELL_PARAMETERS (alat=  9.00000000)
  -0.475268485  -0.000000000   0.475268485
   0.000000000   0.475268485   0.475268485
  -0.475268485   0.475268485  -0.000000000

ATOMIC_POSITIONS (alat)
Al               0.0000000000        0.0000000000        0.0000000000



     Writing config-only to output data dir /Users/zhy/Aluminum-from-First-Principles/qe-out/a3-relax/aluminum_relax.save/ :
     XML data file
     NEW-OLD atomic charge density approx. for the potential
     New effective cutoffs (rho, wfc):  308.02   38.73

     total cpu time spent up to now is        3.3 secs

     Self-consistent Calculation

     iteration #  1     ecut=    35.00 Ry     beta= 0.70
     Davidson diagonalization with overlap
     c_bands:  1 eigenvalues not converged
     c_bands:  1 eigenvalues not converged
     ethr =  1.00E-06,  avg # of iterations =  6.0

     total cpu time spent up to now is        3.7 secs

     total energy              =     -12.44021535 Ry
     estimated scf accuracy    <       0.00000430 Ry

     iteration #  2     ecut=    35.00 Ry     beta= 0.70
     Davidson diagonalization with overlap
     ethr =  1.43E-07,  avg # of iterations =  1.5

     total cpu time spent up to now is        4.0 secs

     total energy              =     -12.44021599 Ry
     estimated scf accuracy    <       0.00000032 Ry

     iteration #  3     ecut=    35.00 Ry     beta= 0.70
     Davidson diagonalization with overlap
     ethr =  1.08E-08,  avg # of iterations =  1.7

     total cpu time spent up to now is        4.2 secs

     total energy              =     -12.44021604 Ry
     estimated scf accuracy    <          1.9E-09 Ry

     iteration #  4     ecut=    35.00 Ry     beta= 0.70
     Davidson diagonalization with overlap
     ethr =  6.40E-11,  avg # of iterations =  3.8

     total cpu time spent up to now is        4.4 secs

     End of self-consistent calculation

     Number of k-points >= 100: set verbosity='high' to print the bands.

     the Fermi energy is     4.8081 ev

!    total energy              =     -12.44021605 Ry
     estimated scf accuracy    <          7.7E-11 Ry
     smearing contrib. (-TS)   =      -0.00001482 Ry
     internal energy E=F+TS    =     -12.44020122 Ry

     The total energy is F=E-TS. E is the sum of the following terms:
     one-electron contribution =       2.24360272 Ry
     hartree contribution      =       0.01347787 Ry
     xc contribution           =      -9.87383757 Ry
     ewald contribution        =      -4.82344424 Ry

     convergence has been achieved in   4 iterations

     Forces acting on atoms (cartesian axes, Ry/au):

     atom    1 type  1   force =     0.00000000    0.00000000    0.00000000

     Total force =     0.000000     Total SCF correction =     0.000000


     Computing stress (Cartesian axis) and pressure

          total   stress  (Ry/bohr**3)                   (kbar)     P=     -119.12
  -0.00080977   0.00000000   0.00000000         -119.12        0.00        0.00
   0.00000000  -0.00080977  -0.00000000            0.00     -119.12       -0.00
   0.00000000  -0.00000000  -0.00080977            0.00       -0.00     -119.12

     Energy error            =      1.2E-02 Ry
     Gradient error          =      0.0E+00 Ry/Bohr
     Cell gradient error     =      1.2E+02 kbar

     number of scf cycles    =   3
     number of bfgs steps    =   2

     enthalpy           old  =     -12.4278950865 Ry
     enthalpy           new  =     -12.4402160470 Ry

     CASE: enthalpy          _new < enthalpy          _old

     new trust radius        =       0.1171848574 bohr
     new conv_thr            =            1.0E-10 Ry

     new unit-cell volume =    135.54429 a.u.^3 (    20.08559 Ang^3 )
     density =      2.23069 g/cm^3

CELL_PARAMETERS (alat=  9.00000000)
  -0.453010122  -0.000000000   0.453010122
   0.000000000   0.453010122   0.453010122
  -0.453010122   0.453010122  -0.000000000

ATOMIC_POSITIONS (alat)
Al               0.0000000000        0.0000000000        0.0000000000



     Writing config-only to output data dir /Users/zhy/Aluminum-from-First-Principles/qe-out/a3-relax/aluminum_relax.save/ :
     XML data file
     NEW-OLD atomic charge density approx. for the potential
     New effective cutoffs (rho, wfc):  339.03   42.63

     total cpu time spent up to now is        4.5 secs

     Self-consistent Calculation

     iteration #  1     ecut=    35.00 Ry     beta= 0.70
     Davidson diagonalization with overlap
     ethr =  1.00E-06,  avg # of iterations =  6.8

     total cpu time spent up to now is        5.1 secs

     total energy              =     -12.45615335 Ry
     estimated scf accuracy    <       0.00000757 Ry

     iteration #  2     ecut=    35.00 Ry     beta= 0.70
     Davidson diagonalization with overlap
     ethr =  2.52E-07,  avg # of iterations =  1.2

     total cpu time spent up to now is        5.3 secs

     total energy              =     -12.45615418 Ry
     estimated scf accuracy    <       0.00000063 Ry

     iteration #  3     ecut=    35.00 Ry     beta= 0.70
     Davidson diagonalization with overlap
     ethr =  2.10E-08,  avg # of iterations =  1.6

     total cpu time spent up to now is        5.5 secs

     total energy              =     -12.45615428 Ry
     estimated scf accuracy    <          1.6E-09 Ry

     iteration #  4     ecut=    35.00 Ry     beta= 0.70
     Davidson diagonalization with overlap
     ethr =  5.40E-11,  avg # of iterations =  3.9

     total cpu time spent up to now is        5.8 secs

     total energy              =     -12.45615429 Ry
     estimated scf accuracy    <          2.0E-10 Ry

     iteration #  5     ecut=    35.00 Ry     beta= 0.70
     Davidson diagonalization with overlap
     ethr =  6.53E-12,  avg # of iterations =  1.2

     total cpu time spent up to now is        6.0 secs

     End of self-consistent calculation

     Number of k-points >= 100: set verbosity='high' to print the bands.

     the Fermi energy is     6.0279 ev

!    total energy              =     -12.45615429 Ry
     estimated scf accuracy    <          4.0E-11 Ry
     smearing contrib. (-TS)   =      -0.00000367 Ry
     internal energy E=F+TS    =     -12.45615062 Ry

     The total energy is F=E-TS. E is the sum of the following terms:
     one-electron contribution =       2.53007508 Ry
     hartree contribution      =       0.00817840 Ry
     xc contribution           =      -9.93396299 Ry
     ewald contribution        =      -5.06044110 Ry

     convergence has been achieved in   5 iterations

     Forces acting on atoms (cartesian axes, Ry/au):

     atom    1 type  1   force =     0.00000000    0.00000000    0.00000000

     Total force =     0.000000     Total SCF correction =     0.000000


     Computing stress (Cartesian axis) and pressure

          total   stress  (Ry/bohr**3)                   (kbar)     P=     -100.13
  -0.00068065  -0.00000000  -0.00000000         -100.13       -0.00       -0.00
  -0.00000000  -0.00068065   0.00000000           -0.00     -100.13        0.00
  -0.00000000   0.00000000  -0.00068065           -0.00        0.00     -100.13

     Energy error            =      1.6E-02 Ry
     Gradient error          =      0.0E+00 Ry/Bohr
     Cell gradient error     =      1.0E+02 kbar

     number of scf cycles    =   4
     number of bfgs steps    =   3

     enthalpy           old  =     -12.4402160470 Ry
     enthalpy           new  =     -12.4561542916 Ry

     CASE: enthalpy          _new < enthalpy          _old

     new trust radius        =       0.1716118208 bohr
     new conv_thr            =            1.0E-10 Ry

     new unit-cell volume =    107.72936 a.u.^3 (    15.96384 Ang^3 )
     density =      2.80663 g/cm^3

CELL_PARAMETERS (alat=  9.00000000)
  -0.419622576  -0.000000000   0.419622576
   0.000000000   0.419622576   0.419622576
  -0.419622576   0.419622576  -0.000000000

ATOMIC_POSITIONS (alat)
Al               0.0000000000        0.0000000000        0.0000000000



     Writing config-only to output data dir /Users/zhy/Aluminum-from-First-Principles/qe-out/a3-relax/aluminum_relax.save/ :
     XML data file
     NEW-OLD atomic charge density approx. for the potential
     New effective cutoffs (rho, wfc):  395.12   49.68

     total cpu time spent up to now is        6.0 secs

     Self-consistent Calculation

     iteration #  1     ecut=    35.00 Ry     beta= 0.70
     Davidson diagonalization with overlap
     ethr =  1.00E-06,  avg # of iterations =  8.2

     total cpu time spent up to now is        6.7 secs

     total energy              =     -12.46679830 Ry
     estimated scf accuracy    <       0.00001281 Ry

     iteration #  2     ecut=    35.00 Ry     beta= 0.70
     Davidson diagonalization with overlap
     ethr =  4.27E-07,  avg # of iterations =  1.0

     total cpu time spent up to now is        6.9 secs

     total energy              =     -12.46679894 Ry
     estimated scf accuracy    <       0.00000104 Ry

     iteration #  3     ecut=    35.00 Ry     beta= 0.70
     Davidson diagonalization with overlap
     ethr =  3.46E-08,  avg # of iterations =  1.2

     total cpu time spent up to now is        7.1 secs

     total energy              =     -12.46679900 Ry
     estimated scf accuracy    <          1.5E-09 Ry

     iteration #  4     ecut=    35.00 Ry     beta= 0.70
     Davidson diagonalization with overlap
     ethr =  5.09E-11,  avg # of iterations =  3.8

     total cpu time spent up to now is        7.4 secs

     End of self-consistent calculation

     Number of k-points >= 100: set verbosity='high' to print the bands.

     the Fermi energy is     8.2903 ev

!    total energy              =     -12.46679901 Ry
     estimated scf accuracy    <          5.2E-11 Ry
     smearing contrib. (-TS)   =       0.00003870 Ry
     internal energy E=F+TS    =     -12.46683772 Ry

     The total energy is F=E-TS. E is the sum of the following terms:
     one-electron contribution =       3.03476342 Ry
     hartree contribution      =       0.00804546 Ry
     xc contribution           =     -10.04656819 Ry
     ewald contribution        =      -5.46307841 Ry

     convergence has been achieved in   4 iterations

     Forces acting on atoms (cartesian axes, Ry/au):

     atom    1 type  1   force =     0.00000000    0.00000000    0.00000000

     Total force =     0.000000     Total SCF correction =     0.000000


     Computing stress (Cartesian axis) and pressure

          total   stress  (Ry/bohr**3)                   (kbar)     P=       16.44
   0.00011177   0.00000000  -0.00000000           16.44        0.00       -0.00
   0.00000000   0.00011177  -0.00000000            0.00       16.44       -0.00
  -0.00000000  -0.00000000   0.00011177           -0.00       -0.00       16.44

     Energy error            =      1.1E-02 Ry
     Gradient error          =      0.0E+00 Ry/Bohr
     Cell gradient error     =      1.6E+01 kbar

     number of scf cycles    =   5
     number of bfgs steps    =   4

     enthalpy           old  =     -12.4561542916 Ry
     enthalpy           new  =     -12.4667990111 Ry

     CASE: enthalpy          _new < enthalpy          _old

     new trust radius        =       0.0203967998 bohr
     new conv_thr            =            1.0E-10 Ry

     new unit-cell volume =    110.93622 a.u.^3 (    16.43905 Ang^3 )
     density =      2.72550 g/cm^3

CELL_PARAMETERS (alat=  9.00000000)
  -0.423745676  -0.000000000   0.423745676
   0.000000000   0.423745676   0.423745676
  -0.423745676   0.423745676  -0.000000000

ATOMIC_POSITIONS (alat)
Al               0.0000000000        0.0000000000        0.0000000000



     Writing config-only to output data dir /Users/zhy/Aluminum-from-First-Principles/qe-out/a3-relax/aluminum_relax.save/ :
     XML data file
     NEW-OLD atomic charge density approx. for the potential
     New effective cutoffs (rho, wfc):  387.47   48.72

     total cpu time spent up to now is        7.5 secs

     Self-consistent Calculation

     iteration #  1     ecut=    35.00 Ry     beta= 0.70
     Davidson diagonalization with overlap
     ethr =  1.00E-06,  avg # of iterations =  3.3

     Threshold (ethr) on eigenvalues was too large:
     Diagonalizing with lowered threshold

     Davidson diagonalization with overlap
     ethr =  5.31E-09,  avg # of iterations =  3.6

     total cpu time spent up to now is        8.0 secs

     total energy              =     -12.46688790 Ry
     estimated scf accuracy    <       0.00000015 Ry

     iteration #  2     ecut=    35.00 Ry     beta= 0.70
     Davidson diagonalization with overlap
     ethr =  4.90E-09,  avg # of iterations =  1.0

     total cpu time spent up to now is        8.2 secs

     total energy              =     -12.46688791 Ry
     estimated scf accuracy    <       0.00000001 Ry

     iteration #  3     ecut=    35.00 Ry     beta= 0.70
     Davidson diagonalization with overlap
     ethr =  4.04E-10,  avg # of iterations =  1.0

     total cpu time spent up to now is        8.4 secs

     End of self-consistent calculation

     Number of k-points >= 100: set verbosity='high' to print the bands.

     the Fermi energy is     7.9923 ev

!    total energy              =     -12.46688791 Ry
     estimated scf accuracy    <          2.2E-11 Ry
     smearing contrib. (-TS)   =       0.00004572 Ry
     internal energy E=F+TS    =     -12.46693364 Ry

     The total energy is F=E-TS. E is the sum of the following terms:
     one-electron contribution =       2.96634577 Ry
     hartree contribution      =       0.00763770 Ry
     xc contribution           =     -10.03099516 Ry
     ewald contribution        =      -5.40992195 Ry

     convergence has been achieved in   3 iterations

     Forces acting on atoms (cartesian axes, Ry/au):

     atom    1 type  1   force =     0.00000000    0.00000000    0.00000000

     Total force =     0.000000     Total SCF correction =     0.000000


     Computing stress (Cartesian axis) and pressure

          total   stress  (Ry/bohr**3)                   (kbar)     P=       -7.64
  -0.00005194  -0.00000000   0.00000000           -7.64       -0.00        0.00
   0.00000000  -0.00005194   0.00000000            0.00       -7.64        0.00
  -0.00000000  -0.00000000  -0.00005194           -0.00       -0.00       -7.64

     Energy error            =      8.9E-05 Ry
     Gradient error          =      0.0E+00 Ry/Bohr
     Cell gradient error     =      7.6E+00 kbar

     number of scf cycles    =   6
     number of bfgs steps    =   5

     enthalpy           old  =     -12.4667990111 Ry
     enthalpy           new  =     -12.4668879142 Ry

     CASE: enthalpy          _new < enthalpy          _old

     new trust radius        =       0.0065902248 bohr
     new conv_thr            =            1.0E-10 Ry

     new unit-cell volume =    109.89829 a.u.^3 (    16.28525 Ang^3 )
     density =      2.75124 g/cm^3

CELL_PARAMETERS (alat=  9.00000000)
  -0.422419996  -0.000000000   0.422419996
   0.000000000   0.422419996   0.422419996
  -0.422419996   0.422419996  -0.000000000

ATOMIC_POSITIONS (alat)
Al               0.0000000000        0.0000000000        0.0000000000



     Writing config-only to output data dir /Users/zhy/Aluminum-from-First-Principles/qe-out/a3-relax/aluminum_relax.save/ :
     XML data file
     NEW-OLD atomic charge density approx. for the potential
     New effective cutoffs (rho, wfc):  389.91   49.03

     total cpu time spent up to now is        8.5 secs

     Self-consistent Calculation

     iteration #  1     ecut=    35.00 Ry     beta= 0.70
     Davidson diagonalization with overlap
     ethr =  1.00E-06,  avg # of iterations =  2.0

     Threshold (ethr) on eigenvalues was too large:
     Diagonalizing with lowered threshold

     Davidson diagonalization with overlap
     ethr =  7.24E-10,  avg # of iterations =  4.0

     total cpu time spent up to now is        9.0 secs

     total energy              =     -12.46691604 Ry
     estimated scf accuracy    <       0.00000001 Ry

     iteration #  2     ecut=    35.00 Ry     beta= 0.70
     Davidson diagonalization with overlap
     ethr =  4.99E-10,  avg # of iterations =  1.0

     total cpu time spent up to now is        9.2 secs

     total energy              =     -12.46691604 Ry
     estimated scf accuracy    <          1.2E-09 Ry

     iteration #  3     ecut=    35.00 Ry     beta= 0.70
     Davidson diagonalization with overlap
     ethr =  4.07E-11,  avg # of iterations =  1.0

     total cpu time spent up to now is        9.5 secs

     End of self-consistent calculation

     Number of k-points >= 100: set verbosity='high' to print the bands.

     the Fermi energy is     8.0871 ev

!    total energy              =     -12.46691604 Ry
     estimated scf accuracy    <          2.3E-12 Ry
     smearing contrib. (-TS)   =       0.00004482 Ry
     internal energy E=F+TS    =     -12.46696086 Ry

     The total energy is F=E-TS. E is the sum of the following terms:
     one-electron contribution =       2.98813072 Ry
     hartree contribution      =       0.00775676 Ry
     xc contribution           =     -10.03594843 Ry
     ewald contribution        =      -5.42689991 Ry

     convergence has been achieved in   3 iterations

     Forces acting on atoms (cartesian axes, Ry/au):

     atom    1 type  1   force =     0.00000000    0.00000000    0.00000000

     Total force =     0.000000     Total SCF correction =     0.000000


     Computing stress (Cartesian axis) and pressure

          total   stress  (Ry/bohr**3)                   (kbar)     P=       -0.27
  -0.00000181  -0.00000000  -0.00000000           -0.27       -0.00       -0.00
  -0.00000000  -0.00000181   0.00000000           -0.00       -0.27        0.00
  -0.00000000   0.00000000  -0.00000181           -0.00        0.00       -0.27

     Energy error            =      2.8E-05 Ry
     Gradient error          =      0.0E+00 Ry/Bohr
     Cell gradient error     =      2.7E-01 kbar

     bfgs converged in   7 scf cycles and   6 bfgs steps
     (criteria: energy <  1.0E-04 Ry, force <  1.0E-03 Ry/Bohr, cell <  5.0E-01 kbar)

     End of BFGS Geometry Optimization

     Final enthalpy           =     -12.4669160405 Ry

     File /Users/zhy/Aluminum-from-First-Principles/qe-out/a3-relax/aluminum_relax.bfgs deleted, as requested
Begin final coordinates
     new unit-cell volume =    109.89829 a.u.^3 (    16.28525 Ang^3 )
     density =      2.75124 g/cm^3

CELL_PARAMETERS (alat=  9.00000000)
  -0.422419996  -0.000000000   0.422419996
   0.000000000   0.422419996   0.422419996
  -0.422419996   0.422419996  -0.000000000

ATOMIC_POSITIONS (alat)
Al               0.0000000000        0.0000000000        0.0000000000
End final coordinates



     Writing config-only to output data dir /Users/zhy/Aluminum-from-First-Principles/qe-out/a3-relax/aluminum_relax.save/ :
     XML data file

     Final scf calculation at the relaxed structure.
     The G-vectors are recalculated for the final unit cell
     Results may differ from those at the preceding step.

     Parallelization info
     --------------------
     sticks:   dense  smooth     PW     G-vecs:    dense   smooth      PW
     Min         279     141     48                 4327     1559     322
     Max         280     142     49                 4330     1560     323
     Sum         559     283     97                 8657     3119     645

     Using Slab Decomposition



     bravais-lattice index     =            2
     lattice parameter (alat)  =       9.0000  a.u.
     unit-cell volume          =     109.8983 (a.u.)^3
     number of atoms/cell      =            1
     number of atomic types    =            1
     number of electrons       =         3.00
     number of Kohn-Sham states=            6
     kinetic-energy cutoff     =      35.0000  Ry
     charge density cutoff     =     280.0000  Ry
     scf convergence threshold =      1.0E-10
     mixing beta               =       0.7000
     number of iterations used =            8  plain     mixing
     press convergence thresh. =      5.0E-01
     Exchange-correlation= SLA  PW   PBE  PBE
                           (   1   4   3   4   0   0   0)

     celldm(1)=   9.000000  celldm(2)=   0.000000  celldm(3)=   0.000000
     celldm(4)=   0.000000  celldm(5)=   0.000000  celldm(6)=   0.000000

     crystal axes: (cart. coord. in units of alat)
               a(1) = (  -0.422420  -0.000000   0.422420 )  
               a(2) = (   0.000000   0.422420   0.422420 )  
               a(3) = (  -0.422420   0.422420  -0.000000 )  

     reciprocal axes: (cart. coord. in units 2 pi/alat)
               b(1) = ( -1.183656 -1.183656  1.183656 )  
               b(2) = (  1.183656  1.183656  1.183656 )  
               b(3) = ( -1.183656  1.183656 -1.183656 )  


     PseudoPot. # 1 for Al read from file:
     /Users/zhy/Aluminum-from-First-Principles/Al.pbe-n-van.UPF
     MD5 check sum: cbc97ad259b400557db688b98a6ada97
     Pseudo is Ultrasoft + core correction, Zval =  3.0
     Generated by new atomic code, or converted to UPF format
     Using radial grid of  893 points,  2 beta functions with: 
                l(1) =   0
                l(2) =   1
     Q(r) pseudized with  8 coefficients,  rinner =    0.900   0.900   0.900


     atomic species   valence    mass     pseudopotential
     Al                3.00    26.98200     Al( 1.00)

     48 Sym. Ops., with inversion, found



   Cartesian axes

     site n.     atom                  positions (alat units)
         1        Al     tau(   1) = (   0.0000000   0.0000000   0.0000000  )

     number of k points=   145  Methfessel-Paxton smearing, width (Ry)=  0.0100

     Number of k-points >= 100: set verbosity='high' to print them.

     Dense  grid:     8657 G-vectors     FFT dimensions: (  30,  30,  30)

     Smooth grid:     3119 G-vectors     FFT dimensions: (  24,  24,  24)

     Estimated max dynamical RAM per process >       7.16 MB

     Estimated total dynamical RAM >      14.31 MB

     Initial potential from superposition of free atoms

     starting charge       2.9975, renormalised to       3.0000
     Starting wfcs are    4 randomized atomic wfcs +    2 random wfcs

     total cpu time spent up to now is        9.7 secs

     Self-consistent Calculation

     iteration #  1     ecut=    35.00 Ry     beta= 0.70
     Davidson diagonalization with overlap
     c_bands:  1 eigenvalues not converged
     c_bands:  1 eigenvalues not converged
     c_bands:  2 eigenvalues not converged
     c_bands:  1 eigenvalues not converged
     c_bands:  1 eigenvalues not converged
     c_bands:  1 eigenvalues not converged
     c_bands:  1 eigenvalues not converged
     c_bands:  1 eigenvalues not converged
     c_bands:  1 eigenvalues not converged
     c_bands:  1 eigenvalues not converged
     c_bands:  1 eigenvalues not converged
     c_bands:  1 eigenvalues not converged
     c_bands:  1 eigenvalues not converged
     c_bands:  1 eigenvalues not converged
     c_bands:  1 eigenvalues not converged
     c_bands:  1 eigenvalues not converged
     c_bands:  1 eigenvalues not converged
     c_bands:  1 eigenvalues not converged
     c_bands:  1 eigenvalues not converged
     c_bands:  1 eigenvalues not converged
     c_bands:  1 eigenvalues not converged
     c_bands:  1 eigenvalues not converged
     ethr =  1.00E-06,  avg # of iterations = 15.3

     total cpu time spent up to now is       10.6 secs

     total energy              =     -12.46673052 Ry
     estimated scf accuracy    <       0.00666448 Ry

     iteration #  2     ecut=    35.00 Ry     beta= 0.70
     Davidson diagonalization with overlap
     ethr =  2.22E-04,  avg # of iterations =  1.0

     total cpu time spent up to now is       10.8 secs

     total energy              =     -12.46671241 Ry
     estimated scf accuracy    <       0.00040062 Ry

     iteration #  3     ecut=    35.00 Ry     beta= 0.70
     Davidson diagonalization with overlap
     ethr =  1.34E-05,  avg # of iterations =  1.9

     total cpu time spent up to now is       11.0 secs

     total energy              =     -12.46674648 Ry
     estimated scf accuracy    <       0.00000099 Ry

     iteration #  4     ecut=    35.00 Ry     beta= 0.70
     Davidson diagonalization with overlap
     ethr =  3.31E-08,  avg # of iterations =  3.5

     total cpu time spent up to now is       11.3 secs

     total energy              =     -12.46674870 Ry
     estimated scf accuracy    <       0.00000008 Ry

     iteration #  5     ecut=    35.00 Ry     beta= 0.70
     Davidson diagonalization with overlap
     ethr =  2.81E-09,  avg # of iterations =  1.2

     total cpu time spent up to now is       11.5 secs

     total energy              =     -12.46674871 Ry
     estimated scf accuracy    <          7.0E-09 Ry

     iteration #  6     ecut=    35.00 Ry     beta= 0.70
     Davidson diagonalization with overlap
     ethr =  2.33E-10,  avg # of iterations =  1.3

     total cpu time spent up to now is       11.7 secs

     End of self-consistent calculation

     Number of k-points >= 100: set verbosity='high' to print the bands.

     the Fermi energy is     8.0885 ev

!    total energy              =     -12.46674871 Ry
     estimated scf accuracy    <          1.8E-11 Ry
     smearing contrib. (-TS)   =       0.00004479 Ry
     internal energy E=F+TS    =     -12.46679350 Ry

     The total energy is F=E-TS. E is the sum of the following terms:
     one-electron contribution =       2.98818407 Ry
     hartree contribution      =       0.00776348 Ry
     xc contribution           =     -10.03584114 Ry
     ewald contribution        =      -5.42689991 Ry

     convergence has been achieved in   6 iterations

     Forces acting on atoms (cartesian axes, Ry/au):

     atom    1 type  1   force =     0.00000000    0.00000000    0.00000000

     Total force =     0.000000     Total SCF correction =     0.000000


     Computing stress (Cartesian axis) and pressure

          total   stress  (Ry/bohr**3)                   (kbar)     P=       -0.46
  -0.00000310  -0.00000000  -0.00000000           -0.46       -0.00       -0.00
  -0.00000000  -0.00000310   0.00000000           -0.00       -0.46        0.00
  -0.00000000   0.00000000  -0.00000310           -0.00        0.00       -0.46


     Writing all to output data dir /Users/zhy/Aluminum-from-First-Principles/qe-out/a3-relax/aluminum_relax.save/ :
     XML data file, charge density, pseudopotentials, collected wavefunctions

     init_run     :      0.56s CPU      0.58s WALL (       2 calls)
     electrons    :     10.09s CPU     10.47s WALL (       8 calls)
     update_pot   :      0.03s CPU      0.03s WALL (       6 calls)
     forces       :      0.09s CPU      0.09s WALL (       8 calls)
     stress       :      0.42s CPU      0.43s WALL (       8 calls)

     Called by init_run:
     wfcinit      :      0.15s CPU      0.16s WALL (       2 calls)
     potinit      :      0.11s CPU      0.11s WALL (       2 calls)
     hinit0       :      0.28s CPU      0.28s WALL (       2 calls)

     Called by electrons:
     c_bands      :      8.47s CPU      8.79s WALL (      37 calls)
     sum_band     :      1.43s CPU      1.48s WALL (      37 calls)
     v_of_rho     :      0.16s CPU      0.16s WALL (      41 calls)
     newd         :      0.04s CPU      0.04s WALL (      41 calls)
     mix_rho      :      0.01s CPU      0.01s WALL (      37 calls)

     Called by c_bands:
     init_us_2    :      0.20s CPU      0.21s WALL (   13340 calls)
     cegterg      :      8.34s CPU      8.64s WALL (    5365 calls)

     Called by *egterg:
     cdiaghg      :      0.43s CPU      0.44s WALL (   19736 calls)
     h_psi        :      7.32s CPU      7.56s WALL (   21476 calls)
     s_psi        :      0.05s CPU      0.06s WALL (   21476 calls)
     g_psi        :      0.02s CPU      0.02s WALL (   15821 calls)

     Called by h_psi:
     h_psi:calbec :      0.08s CPU      0.09s WALL (   21476 calls)
     vloc_psi     :      7.16s CPU      7.36s WALL (   21476 calls)
     add_vuspsi   :      0.05s CPU      0.06s WALL (   21476 calls)

     General routines
     calbec       :      0.16s CPU      0.17s WALL (   46561 calls)
     fft          :      0.32s CPU      0.32s WALL (     727 calls)
     ffts         :      0.10s CPU      0.10s WALL (      78 calls)
     fftw         :      7.52s CPU      7.69s WALL (  224248 calls)
     interpolate  :      0.10s CPU      0.10s WALL (      41 calls)

     Parallel routines

     PWSCF        :     11.27s CPU     11.73s WALL


   This run was terminated on:  14:47:29  24Sep2026            

=------------------------------------------------------------------------------=
   JOB DONE.
=------------------------------------------------------------------------------=
Note: The following floating-point exceptions are signalling: IEEE_UNDERFLOW_FLAG
Note: The following floating-point exceptions are signalling: IEEE_INVALID_FLAG IEEE_DIVIDE_BY_ZERO IEEE_UNDERFLOW_FLAG
