
     Program PWSCF v.7.6 starts on 22Sep2026 at 22:35:34 

     This program is part of the open-source Quantum ESPRESSO suite
     for quantum simulation of materials; please cite
         "P. Giannozzi et al., J. Phys.:Condens. Matter 21 395502 (2009);
         "P. Giannozzi et al., J. Phys.:Condens. Matter 29 465901 (2017);
         "P. Giannozzi et al., J. Chem. Phys. 152 154105 (2020);
          URL http://www.quantum-espresso.org", 
     in publications or presentations arising from this work. More details at
     http://www.quantum-espresso.org/quote

     Parallel version (MPI), running on     2 processors

     MPI processes distributed on     1 nodes
     0 MiB available memory on the printing compute node when the environment starts

     Reading input from Al.scf.inp

     Current dimensions of program PWSCF are:
     Max number of different atomic species (ntypx) = 10
     Max number of k-points (npk) =  40000
     Max angular momentum in pseudopotentials (lmaxx) =  4

     R & G space division:  proc/nbgrp/npool/nimage =       2
     Subspace diagonalization in iterative solution of the eigenvalue problem:
     a serial algorithm will be used


     Parallelization info
     --------------------
     sticks:   dense  smooth     PW     G-vecs:    dense   smooth      PW
     Min          81      81     30                  728      728     165
     Max          82      82     31                  731      731     166
     Sum         163     163     61                 1459     1459     331

     Using Slab Decomposition



     bravais-lattice index     =            2
     lattice parameter (alat)  =       9.0000  a.u.
     unit-cell volume          =     182.2500 (a.u.)^3
     number of atoms/cell      =            1
     number of atomic types    =            1
     number of electrons       =         3.00
     number of Kohn-Sham states=            6
     kinetic-energy cutoff     =      15.0000  Ry
     charge density cutoff     =      60.0000  Ry
     scf convergence threshold =      1.0E-08
     mixing beta               =       0.7000
     number of iterations used =            8  plain     mixing
     Exchange-correlation= SLA  PW   PBE  PBE
                           (   1   4   3   4   0   0   0)

     celldm(1)=   9.000000  celldm(2)=   0.000000  celldm(3)=   0.000000
     celldm(4)=   0.000000  celldm(5)=   0.000000  celldm(6)=   0.000000

     crystal axes: (cart. coord. in units of alat)
               a(1) = (  -0.500000   0.000000   0.500000 )  
               a(2) = (   0.000000   0.500000   0.500000 )  
               a(3) = (  -0.500000   0.500000   0.000000 )  

     reciprocal axes: (cart. coord. in units 2 pi/alat)
               b(1) = ( -1.000000 -1.000000  1.000000 )  
               b(2) = (  1.000000  1.000000  1.000000 )  
               b(3) = ( -1.000000  1.000000 -1.000000 )  


     PseudoPot. # 1 for Al read from file:
     ./Al.pbe-n-van.UPF
     MD5 check sum: cbc97ad259b400557db688b98a6ada97
     Pseudo is Ultrasoft + core correction, Zval =  3.0
     Generated by new atomic code, or converted to UPF format
     Using radial grid of  893 points,  2 beta functions with: 
                l(1) =   0
                l(2) =   1
     Q(r) pseudized with  8 coefficients,  rinner =    0.900   0.900   0.900


     atomic species   valence    mass     pseudopotential
     Al                3.00    26.98200     Al( 1.00)

     48 Sym. Ops., with inversion, found



   Cartesian axes

     site n.     atom                  positions (alat units)
         1        Al     tau(   1) = (   0.0000000   0.0000000   0.0000000  )

     number of k points=     8  Methfessel-Paxton smearing, width (Ry)=  0.0500
                       cart. coord. in units 2pi/alat
        k(    1) = (   0.0000000   0.0000000   0.0000000), wk =   0.0312500
        k(    2) = (  -0.2500000   0.2500000  -0.2500000), wk =   0.2500000
        k(    3) = (   0.5000000  -0.5000000   0.5000000), wk =   0.1250000
        k(    4) = (   0.0000000   0.5000000   0.0000000), wk =   0.1875000
        k(    5) = (   0.7500000  -0.2500000   0.7500000), wk =   0.7500000
        k(    6) = (   0.5000000   0.0000000   0.5000000), wk =   0.3750000
        k(    7) = (   0.0000000  -1.0000000   0.0000000), wk =   0.0937500
        k(    8) = (  -0.5000000  -1.0000000   0.0000000), wk =   0.1875000

     Dense  grid:     1459 G-vectors     FFT dimensions: (  15,  15,  15)

     Estimated max dynamical RAM per process >       0.83 MB

     Estimated total dynamical RAM >       1.65 MB

     Check: negative core charge=   -0.000228

     Initial potential from superposition of free atoms

     starting charge       2.9975, renormalised to       3.0000
     Starting wfcs are    4 randomized atomic wfcs +    2 random wfcs

     total cpu time spent up to now is        0.0 secs

     Self-consistent Calculation

     iteration #  1     ecut=    15.00 Ry     beta= 0.70
     Davidson diagonalization with overlap
     ethr =  1.00E-02,  avg # of iterations =  5.2

     Threshold (ethr) on eigenvalues was too large:
     Diagonalizing with lowered threshold

     Davidson diagonalization with overlap
     ethr =  1.37E-04,  avg # of iterations =  2.6

     total cpu time spent up to now is        0.1 secs

     total energy              =     -12.40755189 Ry
     estimated scf accuracy    <       0.00403327 Ry

     iteration #  2     ecut=    15.00 Ry     beta= 0.70
     Davidson diagonalization with overlap
     ethr =  1.34E-04,  avg # of iterations =  1.0

     total cpu time spent up to now is        0.1 secs

     total energy              =     -12.40763392 Ry
     estimated scf accuracy    <       0.00020663 Ry

     iteration #  3     ecut=    15.00 Ry     beta= 0.70
     Davidson diagonalization with overlap
     ethr =  6.89E-06,  avg # of iterations =  2.1

     total cpu time spent up to now is        0.1 secs

     total energy              =     -12.40764963 Ry
     estimated scf accuracy    <       0.00000092 Ry

     iteration #  4     ecut=    15.00 Ry     beta= 0.70
     Davidson diagonalization with overlap
     ethr =  3.08E-08,  avg # of iterations =  2.8

     total cpu time spent up to now is        0.1 secs

     total energy              =     -12.40765028 Ry
     estimated scf accuracy    <       0.00000005 Ry

     iteration #  5     ecut=    15.00 Ry     beta= 0.70
     Davidson diagonalization with overlap
     ethr =  1.75E-09,  avg # of iterations =  1.6

     total cpu time spent up to now is        0.1 secs

     End of self-consistent calculation

          k = 0.0000 0.0000 0.0000 (   169 PWs)   bands (ev):

    -4.4449  12.6184  12.6184  12.6184  14.1022  14.1022

          k =-0.2500 0.2500-0.2500 (   177 PWs)   bands (ev):

    -3.2345   6.2731  11.3184  11.3184  14.0094  14.9204

          k = 0.5000-0.5000 0.5000 (   180 PWs)   bands (ev):

    -0.1222   0.9441  10.9933  10.9933  13.3022  13.3022

          k = 0.0000 0.5000 0.0000 (   178 PWs)   bands (ev):

    -2.8301   8.9206   9.0172   9.0172  10.4837  11.7548

          k = 0.7500-0.2500 0.7500 (   184 PWs)   bands (ev):

    -0.0787   3.2048   6.2326   8.6384  10.4963  15.4128

          k = 0.5000 0.0000 0.5000 (   180 PWs)   bands (ev):

    -1.2460   5.0689   5.1795  10.3298  12.3733  16.5591

          k = 0.0000-1.0000 0.0000 (   190 PWs)   bands (ev):

     1.8405   1.9833   7.5645   7.5645   8.8907   9.6490

          k =-0.5000-1.0000 0.0000 (   176 PWs)   bands (ev):

     2.6498   3.5304   3.5304   4.6406  15.0255  15.8835

     the Fermi energy is     3.4842 ev

!    total energy              =     -12.40765029 Ry
     estimated scf accuracy    <          2.0E-09 Ry
     smearing contrib. (-TS)   =      -0.00438736 Ry
     internal energy E=F+TS    =     -12.40326294 Ry

     The total energy is F=E-TS. E is the sum of the following terms:
     one-electron contribution =       1.97402471 Ry
     hartree contribution      =       0.02827814 Ry
     xc contribution           =      -9.82070366 Ry
     ewald contribution        =      -4.58486212 Ry

     convergence has been achieved in   5 iterations

     Forces acting on atoms (cartesian axes, Ry/au):

     atom    1 type  1   force =     0.00000000    0.00000000    0.00000000

     Total force =     0.000000     Total SCF correction =     0.000000


     Computing stress (Cartesian axis) and pressure

          total   stress  (Ry/bohr**3)                   (kbar)     P=      -53.88
  -0.00036624   0.00000000  -0.00000000          -53.88        0.00       -0.00
   0.00000000  -0.00036624   0.00000000            0.00      -53.88        0.00
  -0.00000000   0.00000000  -0.00036624           -0.00        0.00      -53.88


     Writing all to output data dir ./qe-out/aluminum.save/ :
     XML data file, charge density, pseudopotentials, collected wavefunctions

     init_run     :      0.03s CPU      0.03s WALL (       1 calls)
     electrons    :      0.03s CPU      0.03s WALL (       1 calls)
     forces       :      0.00s CPU      0.00s WALL (       1 calls)
     stress       :      0.00s CPU      0.00s WALL (       1 calls)

     Called by init_run:
     wfcinit      :      0.00s CPU      0.00s WALL (       1 calls)
     potinit      :      0.00s CPU      0.00s WALL (       1 calls)
     hinit0       :      0.03s CPU      0.03s WALL (       1 calls)

     Called by electrons:
     c_bands      :      0.02s CPU      0.02s WALL (       6 calls)
     sum_band     :      0.00s CPU      0.00s WALL (       6 calls)
     v_of_rho     :      0.00s CPU      0.00s WALL (       6 calls)
     newd         :      0.00s CPU      0.00s WALL (       6 calls)
     mix_rho      :      0.00s CPU      0.00s WALL (       6 calls)

     Called by c_bands:
     init_us_2    :      0.00s CPU      0.00s WALL (     120 calls)
     cegterg      :      0.02s CPU      0.02s WALL (      48 calls)

     Called by *egterg:
     cdiaghg      :      0.00s CPU      0.00s WALL (     163 calls)
     h_psi        :      0.01s CPU      0.02s WALL (     179 calls)
     s_psi        :      0.00s CPU      0.00s WALL (     179 calls)
     g_psi        :      0.00s CPU      0.00s WALL (     123 calls)

     Called by h_psi:
     h_psi:calbec :      0.00s CPU      0.00s WALL (     179 calls)
     vloc_psi     :      0.01s CPU      0.01s WALL (     179 calls)
     add_vuspsi   :      0.00s CPU      0.00s WALL (     179 calls)

     General routines
     calbec       :      0.00s CPU      0.00s WALL (     363 calls)
     fft          :      0.01s CPU      0.01s WALL (      92 calls)
     ffts         :      0.00s CPU      0.00s WALL (       6 calls)
     fftw         :      0.01s CPU      0.01s WALL (    1816 calls)

     Parallel routines

     PWSCF        :      0.07s CPU      0.08s WALL


   This run was terminated on:  22:35:34  22Sep2026            

=------------------------------------------------------------------------------=
   JOB DONE.
=------------------------------------------------------------------------------=
Note: The following floating-point exceptions are signalling: IEEE_UNDERFLOW_FLAG
Note: The following floating-point exceptions are signalling: IEEE_INVALID_FLAG IEEE_DIVIDE_BY_ZERO IEEE_UNDERFLOW_FLAG
