
     Program PWSCF v.7.6 starts on 22Sep2026 at 23:45:38 

     This program is part of the open-source Quantum ESPRESSO suite
     for quantum simulation of materials; please cite
         "P. Giannozzi et al., J. Phys.:Condens. Matter 21 395502 (2009);
         "P. Giannozzi et al., J. Phys.:Condens. Matter 29 465901 (2017);
         "P. Giannozzi et al., J. Chem. Phys. 152 154105 (2020);
          URL http://www.quantum-espresso.org", 
     in publications or presentations arising from this work. More details at
     http://www.quantum-espresso.org/quote

     Parallel version (MPI), running on     2 processors

     MPI processes distributed on     1 nodes
     0 MiB available memory on the printing compute node when the environment starts

     Reading input from Al.scf.inp

     Current dimensions of program PWSCF are:
     Max number of different atomic species (ntypx) = 10
     Max number of k-points (npk) =  40000
     Max angular momentum in pseudopotentials (lmaxx) =  4

     R & G space division:  proc/nbgrp/npool/nimage =       2
     Subspace diagonalization in iterative solution of the eigenvalue problem:
     a serial algorithm will be used


     Parallelization info
     --------------------
     sticks:   dense  smooth     PW     G-vecs:    dense   smooth      PW
     Min         444     219     75                 8785     3115     569
     Max         445     220     76                 8788     3116     570
     Sum         889     439    151                17573     6231    1139

     Using Slab Decomposition



     bravais-lattice index     =            2
     lattice parameter (alat)  =       9.0000  a.u.
     unit-cell volume          =     182.2500 (a.u.)^3
     number of atoms/cell      =            1
     number of atomic types    =            1
     number of electrons       =         3.00
     number of Kohn-Sham states=            6
     kinetic-energy cutoff     =      40.0000  Ry
     charge density cutoff     =     320.0000  Ry
     scf convergence threshold =      1.0E-08
     mixing beta               =       0.7000
     number of iterations used =            8  plain     mixing
     Exchange-correlation= SLA  PW   PBE  PBE
                           (   1   4   3   4   0   0   0)

     celldm(1)=   9.000000  celldm(2)=   0.000000  celldm(3)=   0.000000
     celldm(4)=   0.000000  celldm(5)=   0.000000  celldm(6)=   0.000000

     crystal axes: (cart. coord. in units of alat)
               a(1) = (  -0.500000   0.000000   0.500000 )  
               a(2) = (   0.000000   0.500000   0.500000 )  
               a(3) = (  -0.500000   0.500000   0.000000 )  

     reciprocal axes: (cart. coord. in units 2 pi/alat)
               b(1) = ( -1.000000 -1.000000  1.000000 )  
               b(2) = (  1.000000  1.000000  1.000000 )  
               b(3) = ( -1.000000  1.000000 -1.000000 )  


     PseudoPot. # 1 for Al read from file:
     /Users/zhy/Aluminum-from-First-Principles/Al.pbe-n-van.UPF
     MD5 check sum: cbc97ad259b400557db688b98a6ada97
     Pseudo is Ultrasoft + core correction, Zval =  3.0
     Generated by new atomic code, or converted to UPF format
     Using radial grid of  893 points,  2 beta functions with: 
                l(1) =   0
                l(2) =   1
     Q(r) pseudized with  8 coefficients,  rinner =    0.900   0.900   0.900


     atomic species   valence    mass     pseudopotential
     Al                3.00    26.98200     Al( 1.00)

     48 Sym. Ops., with inversion, found



   Cartesian axes

     site n.     atom                  positions (alat units)
         1        Al     tau(   1) = (   0.0000000   0.0000000   0.0000000  )

     number of k points=    16  Methfessel-Paxton smearing, width (Ry)=  0.0500
                       cart. coord. in units 2pi/alat
        k(    1) = (   0.0000000   0.0000000   0.0000000), wk =   0.0092593
        k(    2) = (  -0.1666667   0.1666667  -0.1666667), wk =   0.0740741
        k(    3) = (  -0.3333333   0.3333333  -0.3333333), wk =   0.0740741
        k(    4) = (   0.5000000  -0.5000000   0.5000000), wk =   0.0370370
        k(    5) = (   0.0000000   0.3333333   0.0000000), wk =   0.0555556
        k(    6) = (  -0.1666667   0.5000000  -0.1666667), wk =   0.2222222
        k(    7) = (   0.6666667  -0.3333333   0.6666667), wk =   0.2222222
        k(    8) = (   0.5000000  -0.1666667   0.5000000), wk =   0.2222222
        k(    9) = (   0.3333333   0.0000000   0.3333333), wk =   0.1111111
        k(   10) = (   0.0000000   0.6666667   0.0000000), wk =   0.0555556
        k(   11) = (   0.8333333  -0.1666667   0.8333333), wk =   0.2222222
        k(   12) = (   0.6666667   0.0000000   0.6666667), wk =   0.1111111
        k(   13) = (   0.0000000  -1.0000000   0.0000000), wk =   0.0277778
        k(   14) = (   0.6666667  -0.3333333   1.0000000), wk =   0.2222222
        k(   15) = (   0.5000000  -0.1666667   0.8333333), wk =   0.2222222
        k(   16) = (  -0.3333333  -1.0000000   0.0000000), wk =   0.1111111

     Dense  grid:    17573 G-vectors     FFT dimensions: (  40,  40,  40)

     Smooth grid:     6231 G-vectors     FFT dimensions: (  25,  25,  25)

     Estimated max dynamical RAM per process >       9.78 MB

     Estimated total dynamical RAM >      19.56 MB

     Initial potential from superposition of free atoms

     starting charge       2.9975, renormalised to       3.0000
     Starting wfcs are    4 randomized atomic wfcs +    2 random wfcs

     total cpu time spent up to now is        0.3 secs

     Self-consistent Calculation

     iteration #  1     ecut=    40.00 Ry     beta= 0.70
     Davidson diagonalization with overlap
     ethr =  1.00E-02,  avg # of iterations =  5.9

     Threshold (ethr) on eigenvalues was too large:
     Diagonalizing with lowered threshold

     Davidson diagonalization with overlap
     ethr =  1.91E-04,  avg # of iterations =  2.7

     total cpu time spent up to now is        0.3 secs

     total energy              =     -12.42254555 Ry
     estimated scf accuracy    <       0.00551334 Ry

     iteration #  2     ecut=    40.00 Ry     beta= 0.70
     Davidson diagonalization with overlap
     ethr =  1.84E-04,  avg # of iterations =  1.0

     total cpu time spent up to now is        0.4 secs

     total energy              =     -12.42267965 Ry
     estimated scf accuracy    <       0.00025764 Ry

     iteration #  3     ecut=    40.00 Ry     beta= 0.70
     Davidson diagonalization with overlap
     ethr =  8.59E-06,  avg # of iterations =  2.8

     total cpu time spent up to now is        0.4 secs

     total energy              =     -12.42271669 Ry
     estimated scf accuracy    <       0.00000103 Ry

     iteration #  4     ecut=    40.00 Ry     beta= 0.70
     Davidson diagonalization with overlap
     c_bands:  1 eigenvalues not converged
     ethr =  3.42E-08,  avg # of iterations =  4.2

     total cpu time spent up to now is        0.5 secs

     total energy              =     -12.42271849 Ry
     estimated scf accuracy    <       0.00000006 Ry

     iteration #  5     ecut=    40.00 Ry     beta= 0.70
     Davidson diagonalization with overlap
     ethr =  1.92E-09,  avg # of iterations =  2.1

     total cpu time spent up to now is        0.5 secs

     End of self-consistent calculation

          k = 0.0000 0.0000 0.0000 (   749 PWs)   bands (ev):

    -4.5018  12.4082  12.4082  12.4082  13.9151  13.9152

          k =-0.1667 0.1667-0.1667 (   785 PWs)   bands (ev):

    -3.9635   8.4814  11.5297  11.5297  14.0372  15.1066

          k =-0.3333 0.3333-0.3333 (   769 PWs)   bands (ev):

    -2.3667   4.0261  10.9213  10.9214  13.6434  13.9326

          k = 0.5000-0.5000 0.5000 (   778 PWs)   bands (ev):

    -0.1868   0.8635  10.8212  10.8212  13.1395  13.6115

          k = 0.0000 0.3333 0.0000 (   785 PWs)   bands (ev):

    -3.7840   9.9738   9.9738  10.5986  11.5519  13.8368

          k =-0.1667 0.5000-0.1667 (   786 PWs)   bands (ev):

    -2.5381   5.8505   9.1814   9.3199  11.4004  14.0944

          k = 0.6667-0.3333 0.6667 (   780 PWs)   bands (ev):

    -0.3148   2.0229   7.8801   9.3029  11.2847  15.5896

          k = 0.5000-0.1667 0.5000 (   781 PWs)   bands (ev):

    -1.1446   3.1806   7.1440  10.2953  12.3704  14.9319

          k = 0.3333 0.0000 0.3333 (   791 PWs)   bands (ev):

    -3.0712   7.3179   7.3591  11.8243  14.3714  15.3017

          k = 0.0000 0.6667 0.0000 (   777 PWs)   bands (ev):

    -1.6494   6.4212   8.0872   8.0872   9.4811  10.3364

          k = 0.8333-0.1667 0.8333 (   769 PWs)   bands (ev):

     0.2633   4.0452   4.9656   7.9220   9.6735  12.8354

          k = 0.6667 0.0000 0.6667 (   776 PWs)   bands (ev):

     1.0258   3.2737   3.4923   8.6953  10.5292  17.1198

          k = 0.0000-1.0000 0.0000 (   790 PWs)   bands (ev):

     1.7624   1.9050   7.4474   7.4474   8.7736   9.4941

          k = 0.6667-0.3333 1.0000 (   781 PWs)   bands (ev):

    -0.9568   5.2955   5.3086   7.5512  13.5449  13.5679

          k = 0.5000-0.1667 0.8333 (   776 PWs)   bands (ev):

     1.2118   2.2054   5.4420   6.4115  13.6364  14.6017

          k =-0.3333-1.0000 0.0000 (   768 PWs)   bands (ev):

     2.2835   2.5900   4.6311   5.1416  12.8958  13.0453

     the Fermi energy is     3.5789 ev

!    total energy              =     -12.42271849 Ry
     estimated scf accuracy    <          1.4E-09 Ry
     smearing contrib. (-TS)   =      -0.00030836 Ry
     internal energy E=F+TS    =     -12.42241013 Ry

     The total energy is F=E-TS. E is the sum of the following terms:
     one-electron contribution =       1.95594528 Ry
     hartree contribution      =       0.02438302 Ry
     xc contribution           =      -9.81787636 Ry
     ewald contribution        =      -4.58486207 Ry

     convergence has been achieved in   5 iterations

     Forces acting on atoms (cartesian axes, Ry/au):

     atom    1 type  1   force =     0.00000000    0.00000000    0.00000000

     Total force =     0.000000     Total SCF correction =     0.000000


     Computing stress (Cartesian axis) and pressure

          total   stress  (Ry/bohr**3)                   (kbar)     P=     -121.59
  -0.00082657   0.00000000   0.00000000         -121.59        0.00        0.00
   0.00000000  -0.00082657  -0.00000000            0.00     -121.59       -0.00
   0.00000000  -0.00000000  -0.00082657            0.00       -0.00     -121.59


     Writing all to output data dir /Users/zhy/Aluminum-from-First-Principles/convergence-runs/cutoff-kmesh/ecut-040.0-ry_k-06x06x06_degauss-0.050-ry/qe-out/aluminum_ecut-040p0-ry_k-06x06x06_degauss-0p050-ry.save/ :
     XML data file, charge density, pseudopotentials, collected wavefunctions

     init_run     :      0.24s CPU      0.24s WALL (       1 calls)
     electrons    :      0.23s CPU      0.24s WALL (       1 calls)
     forces       :      0.01s CPU      0.01s WALL (       1 calls)
     stress       :      0.02s CPU      0.03s WALL (       1 calls)

     Called by init_run:
     wfcinit      :      0.01s CPU      0.01s WALL (       1 calls)
     potinit      :      0.04s CPU      0.04s WALL (       1 calls)
     hinit0       :      0.16s CPU      0.16s WALL (       1 calls)

     Called by electrons:
     c_bands      :      0.15s CPU      0.16s WALL (       6 calls)
     sum_band     :      0.04s CPU      0.04s WALL (       6 calls)
     v_of_rho     :      0.04s CPU      0.04s WALL (       6 calls)
     newd         :      0.01s CPU      0.01s WALL (       6 calls)
     mix_rho      :      0.00s CPU      0.00s WALL (       6 calls)

     Called by c_bands:
     init_us_2    :      0.00s CPU      0.00s WALL (     240 calls)
     cegterg      :      0.15s CPU      0.15s WALL (      96 calls)

     Called by *egterg:
     cdiaghg      :      0.01s CPU      0.01s WALL (     380 calls)
     h_psi        :      0.14s CPU      0.14s WALL (     412 calls)
     s_psi        :      0.00s CPU      0.00s WALL (     412 calls)
     g_psi        :      0.00s CPU      0.00s WALL (     300 calls)

     Called by h_psi:
     h_psi:calbec :      0.00s CPU      0.00s WALL (     412 calls)
     vloc_psi     :      0.13s CPU      0.14s WALL (     412 calls)
     add_vuspsi   :      0.00s CPU      0.00s WALL (     412 calls)

     General routines
     calbec       :      0.00s CPU      0.00s WALL (     780 calls)
     fft          :      0.15s CPU      0.16s WALL (     102 calls)
     ffts         :      0.03s CPU      0.03s WALL (      12 calls)
     fftw         :      0.14s CPU      0.14s WALL (    3852 calls)
     interpolate  :      0.03s CPU      0.03s WALL (       6 calls)

     Parallel routines

     PWSCF        :      0.52s CPU      0.54s WALL


   This run was terminated on:  23:45:39  22Sep2026            

=------------------------------------------------------------------------------=
   JOB DONE.
=------------------------------------------------------------------------------=
Note: The following floating-point exceptions are signalling: IEEE_UNDERFLOW_FLAG
Note: The following floating-point exceptions are signalling: IEEE_INVALID_FLAG IEEE_DIVIDE_BY_ZERO IEEE_UNDERFLOW_FLAG
