
     Program PWSCF v.7.6 starts on 23Sep2026 at  1:27:55 

     This program is part of the open-source Quantum ESPRESSO suite
     for quantum simulation of materials; please cite
         "P. Giannozzi et al., J. Phys.:Condens. Matter 21 395502 (2009);
         "P. Giannozzi et al., J. Phys.:Condens. Matter 29 465901 (2017);
         "P. Giannozzi et al., J. Chem. Phys. 152 154105 (2020);
          URL http://www.quantum-espresso.org", 
     in publications or presentations arising from this work. More details at
     http://www.quantum-espresso.org/quote

     Parallel version (MPI), running on     2 processors

     MPI processes distributed on     1 nodes
     0 MiB available memory on the printing compute node when the environment starts

     Reading input from Al.scf.inp

     Current dimensions of program PWSCF are:
     Max number of different atomic species (ntypx) = 10
     Max number of k-points (npk) =  40000
     Max angular momentum in pseudopotentials (lmaxx) =  4

     R & G space division:  proc/nbgrp/npool/nimage =       2
     Subspace diagonalization in iterative solution of the eigenvalue problem:
     a serial algorithm will be used


     Parallelization info
     --------------------
     sticks:   dense  smooth     PW     G-vecs:    dense   smooth      PW
     Min         384     189     60                 7164     2513     469
     Max         385     190     61                 7167     2516     472
     Sum         769     379    121                14331     5029     941

     Using Slab Decomposition



     bravais-lattice index     =            2
     lattice parameter (alat)  =       9.0000  a.u.
     unit-cell volume          =     182.2500 (a.u.)^3
     number of atoms/cell      =            1
     number of atomic types    =            1
     number of electrons       =         3.00
     number of Kohn-Sham states=            6
     kinetic-energy cutoff     =      35.0000  Ry
     charge density cutoff     =     280.0000  Ry
     scf convergence threshold =      1.0E-08
     mixing beta               =       0.7000
     number of iterations used =            8  plain     mixing
     Exchange-correlation= SLA  PW   PBE  PBE
                           (   1   4   3   4   0   0   0)

     celldm(1)=   9.000000  celldm(2)=   0.000000  celldm(3)=   0.000000
     celldm(4)=   0.000000  celldm(5)=   0.000000  celldm(6)=   0.000000

     crystal axes: (cart. coord. in units of alat)
               a(1) = (  -0.500000   0.000000   0.500000 )  
               a(2) = (   0.000000   0.500000   0.500000 )  
               a(3) = (  -0.500000   0.500000   0.000000 )  

     reciprocal axes: (cart. coord. in units 2 pi/alat)
               b(1) = ( -1.000000 -1.000000  1.000000 )  
               b(2) = (  1.000000  1.000000  1.000000 )  
               b(3) = ( -1.000000  1.000000 -1.000000 )  


     PseudoPot. # 1 for Al read from file:
     /Users/zhy/Aluminum-from-First-Principles/Al.pbe-n-van.UPF
     MD5 check sum: cbc97ad259b400557db688b98a6ada97
     Pseudo is Ultrasoft + core correction, Zval =  3.0
     Generated by new atomic code, or converted to UPF format
     Using radial grid of  893 points,  2 beta functions with: 
                l(1) =   0
                l(2) =   1
     Q(r) pseudized with  8 coefficients,  rinner =    0.900   0.900   0.900


     atomic species   valence    mass     pseudopotential
     Al                3.00    26.98200     Al( 1.00)

     48 Sym. Ops., with inversion, found



   Cartesian axes

     site n.     atom                  positions (alat units)
         1        Al     tau(   1) = (   0.0000000   0.0000000   0.0000000  )

     number of k points=    16  Methfessel-Paxton smearing, width (Ry)=  0.0200
                       cart. coord. in units 2pi/alat
        k(    1) = (   0.0000000   0.0000000   0.0000000), wk =   0.0092593
        k(    2) = (  -0.1666667   0.1666667  -0.1666667), wk =   0.0740741
        k(    3) = (  -0.3333333   0.3333333  -0.3333333), wk =   0.0740741
        k(    4) = (   0.5000000  -0.5000000   0.5000000), wk =   0.0370370
        k(    5) = (   0.0000000   0.3333333   0.0000000), wk =   0.0555556
        k(    6) = (  -0.1666667   0.5000000  -0.1666667), wk =   0.2222222
        k(    7) = (   0.6666667  -0.3333333   0.6666667), wk =   0.2222222
        k(    8) = (   0.5000000  -0.1666667   0.5000000), wk =   0.2222222
        k(    9) = (   0.3333333   0.0000000   0.3333333), wk =   0.1111111
        k(   10) = (   0.0000000   0.6666667   0.0000000), wk =   0.0555556
        k(   11) = (   0.8333333  -0.1666667   0.8333333), wk =   0.2222222
        k(   12) = (   0.6666667   0.0000000   0.6666667), wk =   0.1111111
        k(   13) = (   0.0000000  -1.0000000   0.0000000), wk =   0.0277778
        k(   14) = (   0.6666667  -0.3333333   1.0000000), wk =   0.2222222
        k(   15) = (   0.5000000  -0.1666667   0.8333333), wk =   0.2222222
        k(   16) = (  -0.3333333  -1.0000000   0.0000000), wk =   0.1111111

     Dense  grid:    14331 G-vectors     FFT dimensions: (  36,  36,  36)

     Smooth grid:     5029 G-vectors     FFT dimensions: (  24,  24,  24)

     Estimated max dynamical RAM per process >       7.80 MB

     Estimated total dynamical RAM >      15.60 MB

     Initial potential from superposition of free atoms

     starting charge       2.9975, renormalised to       3.0000
     Starting wfcs are    4 randomized atomic wfcs +    2 random wfcs

     total cpu time spent up to now is        0.3 secs

     Self-consistent Calculation

     iteration #  1     ecut=    35.00 Ry     beta= 0.70
     Davidson diagonalization with overlap
     ethr =  1.00E-02,  avg # of iterations =  5.6

     Threshold (ethr) on eigenvalues was too large:
     Diagonalizing with lowered threshold

     Davidson diagonalization with overlap
     ethr =  1.97E-04,  avg # of iterations =  2.3

     total cpu time spent up to now is        0.4 secs

     total energy              =     -12.42252557 Ry
     estimated scf accuracy    <       0.00570567 Ry

     iteration #  2     ecut=    35.00 Ry     beta= 0.70
     Davidson diagonalization with overlap
     ethr =  1.90E-04,  avg # of iterations =  1.0

     total cpu time spent up to now is        0.4 secs

     total energy              =     -12.42265813 Ry
     estimated scf accuracy    <       0.00027046 Ry

     iteration #  3     ecut=    35.00 Ry     beta= 0.70
     Davidson diagonalization with overlap
     c_bands:  1 eigenvalues not converged
     ethr =  9.02E-06,  avg # of iterations =  3.8

     total cpu time spent up to now is        0.5 secs

     total energy              =     -12.42269531 Ry
     estimated scf accuracy    <       0.00000099 Ry

     iteration #  4     ecut=    35.00 Ry     beta= 0.70
     Davidson diagonalization with overlap
     ethr =  3.30E-08,  avg # of iterations =  4.3

     total cpu time spent up to now is        0.6 secs

     total energy              =     -12.42269714 Ry
     estimated scf accuracy    <       0.00000005 Ry

     iteration #  5     ecut=    35.00 Ry     beta= 0.70
     Davidson diagonalization with overlap
     ethr =  1.60E-09,  avg # of iterations =  1.2

     total cpu time spent up to now is        0.6 secs

     End of self-consistent calculation

          k = 0.0000 0.0000 0.0000 (   609 PWs)   bands (ev):

    -4.5027  12.4099  12.4099  12.4099  13.9169  13.9169

          k =-0.1667 0.1667-0.1667 (   637 PWs)   bands (ev):

    -3.9645   8.4809  11.5305  11.5305  14.0385  15.1081

          k =-0.3333 0.3333-0.3333 (   613 PWs)   bands (ev):

    -2.3676   4.0260  10.9226  10.9226  13.6454  13.9347

          k = 0.5000-0.5000 0.5000 (   628 PWs)   bands (ev):

    -0.1884   0.8634  10.8219  10.8219  13.1414  13.1414

          k = 0.0000 0.3333 0.0000 (   637 PWs)   bands (ev):

    -3.7850   9.9739   9.9739  10.5985  11.5528  13.8387

          k =-0.1667 0.5000-0.1667 (   630 PWs)   bands (ev):

    -2.5390   5.8502   9.1817   9.3200  11.4019  14.0960

          k = 0.6667-0.3333 0.6667 (   640 PWs)   bands (ev):

    -0.3160   2.0224   7.8800   9.3034  11.2862  15.5912

          k = 0.5000-0.1667 0.5000 (   631 PWs)   bands (ev):

    -1.1457   3.1803   7.1440  10.2961  12.3721  14.9336

          k = 0.3333 0.0000 0.3333 (   630 PWs)   bands (ev):

    -3.0722   7.3178   7.3588  11.8251  14.3733  15.3034

          k = 0.0000 0.6667 0.0000 (   640 PWs)   bands (ev):

    -1.6504   6.4204   8.0872   8.0872   9.4819  10.3378

          k = 0.8333-0.1667 0.8333 (   640 PWs)   bands (ev):

     0.2622   4.0441   4.9658   7.9220   9.6745  12.8363

          k = 0.6667 0.0000 0.6667 (   650 PWs)   bands (ev):

     1.0245   3.2731   3.4919   8.6954  10.5304  17.1210

          k = 0.0000-1.0000 0.0000 (   636 PWs)   bands (ev):

     1.7611   1.9044   7.4474   7.4474   8.7744   9.4955

          k = 0.6667-0.3333 1.0000 (   641 PWs)   bands (ev):

    -0.9579   5.2948   5.3084   7.5517  13.5455  13.5694

          k = 0.5000-0.1667 0.8333 (   648 PWs)   bands (ev):

     1.2103   2.2053   5.4411   6.4119  13.6374  14.6030

          k =-0.3333-1.0000 0.0000 (   642 PWs)   bands (ev):

     2.2818   2.5895   4.6309   5.1419  12.8962  13.0462

     the Fermi energy is     3.4638 ev

!    total energy              =     -12.42269714 Ry
     estimated scf accuracy    <          1.3E-09 Ry
     smearing contrib. (-TS)   =       0.00001674 Ry
     internal energy E=F+TS    =     -12.42271388 Ry

     The total energy is F=E-TS. E is the sum of the following terms:
     one-electron contribution =       1.95508712 Ry
     hartree contribution      =       0.02424783 Ry
     xc contribution           =      -9.81718676 Ry
     ewald contribution        =      -4.58486207 Ry

     convergence has been achieved in   5 iterations

     Forces acting on atoms (cartesian axes, Ry/au):

     atom    1 type  1   force =     0.00000000    0.00000000    0.00000000

     Total force =     0.000000     Total SCF correction =     0.000000


     Computing stress (Cartesian axis) and pressure

          total   stress  (Ry/bohr**3)                   (kbar)     P=     -125.07
  -0.00085018   0.00000000  -0.00000000         -125.07        0.00       -0.00
   0.00000000  -0.00085018  -0.00000000            0.00     -125.07       -0.00
   0.00000000   0.00000000  -0.00085018            0.00        0.00     -125.07


     Writing all to output data dir /Users/zhy/Aluminum-from-First-Principles/convergence-runs/smearing/ecut-035.0-ry_k-06x06x06_degauss-0.020-ry/qe-out/aluminum_ecut-035p0-ry_k-06x06x06_degauss-0p020-ry.save/ :
     XML data file, charge density, pseudopotentials, collected wavefunctions

     init_run     :      0.29s CPU      0.30s WALL (       1 calls)
     electrons    :      0.22s CPU      0.28s WALL (       1 calls)
     forces       :      0.01s CPU      0.01s WALL (       1 calls)
     stress       :      0.02s CPU      0.02s WALL (       1 calls)

     Called by init_run:
     wfcinit      :      0.01s CPU      0.01s WALL (       1 calls)
     potinit      :      0.10s CPU      0.11s WALL (       1 calls)
     hinit0       :      0.17s CPU      0.17s WALL (       1 calls)

     Called by electrons:
     c_bands      :      0.16s CPU      0.21s WALL (       6 calls)
     sum_band     :      0.04s CPU      0.04s WALL (       6 calls)
     v_of_rho     :      0.03s CPU      0.03s WALL (       6 calls)
     newd         :      0.01s CPU      0.01s WALL (       6 calls)
     mix_rho      :      0.00s CPU      0.00s WALL (       6 calls)

     Called by c_bands:
     init_us_2    :      0.00s CPU      0.00s WALL (     240 calls)
     cegterg      :      0.15s CPU      0.20s WALL (      96 calls)

     Called by *egterg:
     cdiaghg      :      0.01s CPU      0.01s WALL (     371 calls)
     h_psi        :      0.14s CPU      0.18s WALL (     403 calls)
     s_psi        :      0.00s CPU      0.00s WALL (     403 calls)
     g_psi        :      0.00s CPU      0.00s WALL (     291 calls)

     Called by h_psi:
     h_psi:calbec :      0.00s CPU      0.00s WALL (     403 calls)
     vloc_psi     :      0.13s CPU      0.18s WALL (     403 calls)
     add_vuspsi   :      0.00s CPU      0.00s WALL (     403 calls)

     General routines
     calbec       :      0.00s CPU      0.00s WALL (     771 calls)
     fft          :      0.16s CPU      0.16s WALL (     102 calls)
     ffts         :      0.10s CPU      0.10s WALL (      12 calls)
     fftw         :      0.14s CPU      0.19s WALL (    3816 calls)
     interpolate  :      0.10s CPU      0.10s WALL (       6 calls)

     Parallel routines

     PWSCF        :      0.56s CPU      0.63s WALL


   This run was terminated on:   1:27:55  23Sep2026            

=------------------------------------------------------------------------------=
   JOB DONE.
=------------------------------------------------------------------------------=
Note: The following floating-point exceptions are signalling: IEEE_INVALID_FLAG IEEE_DIVIDE_BY_ZERO IEEE_UNDERFLOW_FLAG
Note: The following floating-point exceptions are signalling: IEEE_UNDERFLOW_FLAG
