
     Program PWSCF v.7.6 starts on 22Sep2026 at 23:45:13 

     This program is part of the open-source Quantum ESPRESSO suite
     for quantum simulation of materials; please cite
         "P. Giannozzi et al., J. Phys.:Condens. Matter 21 395502 (2009);
         "P. Giannozzi et al., J. Phys.:Condens. Matter 29 465901 (2017);
         "P. Giannozzi et al., J. Chem. Phys. 152 154105 (2020);
          URL http://www.quantum-espresso.org", 
     in publications or presentations arising from this work. More details at
     http://www.quantum-espresso.org/quote

     Parallel version (MPI), running on     2 processors

     MPI processes distributed on     1 nodes
     0 MiB available memory on the printing compute node when the environment starts

     Reading input from Al.scf.inp

     Current dimensions of program PWSCF are:
     Max number of different atomic species (ntypx) = 10
     Max number of k-points (npk) =  40000
     Max angular momentum in pseudopotentials (lmaxx) =  4

     R & G space division:  proc/nbgrp/npool/nimage =       2
     Subspace diagonalization in iterative solution of the eigenvalue problem:
     a serial algorithm will be used


     Parallelization info
     --------------------
     sticks:   dense  smooth     PW     G-vecs:    dense   smooth      PW
     Min         168      81     30                 2007      728     165
     Max         169      82     31                 2008      731     166
     Sum         337     163     61                 4015     1459     331

     Using Slab Decomposition



     bravais-lattice index     =            2
     lattice parameter (alat)  =       9.0000  a.u.
     unit-cell volume          =     182.2500 (a.u.)^3
     number of atoms/cell      =            1
     number of atomic types    =            1
     number of electrons       =         3.00
     number of Kohn-Sham states=            6
     kinetic-energy cutoff     =      15.0000  Ry
     charge density cutoff     =     120.0000  Ry
     scf convergence threshold =      1.0E-08
     mixing beta               =       0.7000
     number of iterations used =            8  plain     mixing
     Exchange-correlation= SLA  PW   PBE  PBE
                           (   1   4   3   4   0   0   0)

     celldm(1)=   9.000000  celldm(2)=   0.000000  celldm(3)=   0.000000
     celldm(4)=   0.000000  celldm(5)=   0.000000  celldm(6)=   0.000000

     crystal axes: (cart. coord. in units of alat)
               a(1) = (  -0.500000   0.000000   0.500000 )  
               a(2) = (   0.000000   0.500000   0.500000 )  
               a(3) = (  -0.500000   0.500000   0.000000 )  

     reciprocal axes: (cart. coord. in units 2 pi/alat)
               b(1) = ( -1.000000 -1.000000  1.000000 )  
               b(2) = (  1.000000  1.000000  1.000000 )  
               b(3) = ( -1.000000  1.000000 -1.000000 )  


     PseudoPot. # 1 for Al read from file:
     /Users/zhy/Aluminum-from-First-Principles/Al.pbe-n-van.UPF
     MD5 check sum: cbc97ad259b400557db688b98a6ada97
     Pseudo is Ultrasoft + core correction, Zval =  3.0
     Generated by new atomic code, or converted to UPF format
     Using radial grid of  893 points,  2 beta functions with: 
                l(1) =   0
                l(2) =   1
     Q(r) pseudized with  8 coefficients,  rinner =    0.900   0.900   0.900


     atomic species   valence    mass     pseudopotential
     Al                3.00    26.98200     Al( 1.00)

     48 Sym. Ops., with inversion, found



   Cartesian axes

     site n.     atom                  positions (alat units)
         1        Al     tau(   1) = (   0.0000000   0.0000000   0.0000000  )

     number of k points=    72  Methfessel-Paxton smearing, width (Ry)=  0.0500
                       cart. coord. in units 2pi/alat
        k(    1) = (   0.0000000   0.0000000   0.0000000), wk =   0.0011574
        k(    2) = (  -0.0833333   0.0833333  -0.0833333), wk =   0.0092593
        k(    3) = (  -0.1666667   0.1666667  -0.1666667), wk =   0.0092593
        k(    4) = (  -0.2500000   0.2500000  -0.2500000), wk =   0.0092593
        k(    5) = (  -0.3333333   0.3333333  -0.3333333), wk =   0.0092593
        k(    6) = (  -0.4166667   0.4166667  -0.4166667), wk =   0.0092593
        k(    7) = (   0.5000000  -0.5000000   0.5000000), wk =   0.0046296
        k(    8) = (   0.0000000   0.1666667   0.0000000), wk =   0.0069444
        k(    9) = (  -0.0833333   0.2500000  -0.0833333), wk =   0.0277778
        k(   10) = (  -0.1666667   0.3333333  -0.1666667), wk =   0.0277778
        k(   11) = (  -0.2500000   0.4166667  -0.2500000), wk =   0.0277778
        k(   12) = (  -0.3333333   0.5000000  -0.3333333), wk =   0.0277778
        k(   13) = (   0.5833333  -0.4166667   0.5833333), wk =   0.0277778
        k(   14) = (   0.5000000  -0.3333333   0.5000000), wk =   0.0277778
        k(   15) = (   0.4166667  -0.2500000   0.4166667), wk =   0.0277778
        k(   16) = (   0.3333333  -0.1666667   0.3333333), wk =   0.0277778
        k(   17) = (   0.2500000  -0.0833333   0.2500000), wk =   0.0277778
        k(   18) = (   0.1666667  -0.0000000   0.1666667), wk =   0.0138889
        k(   19) = (   0.0000000   0.3333333   0.0000000), wk =   0.0069444
        k(   20) = (  -0.0833333   0.4166667  -0.0833333), wk =   0.0277778
        k(   21) = (  -0.1666667   0.5000000  -0.1666667), wk =   0.0277778
        k(   22) = (  -0.2500000   0.5833333  -0.2500000), wk =   0.0277778
        k(   23) = (   0.6666667  -0.3333333   0.6666667), wk =   0.0277778
        k(   24) = (   0.5833333  -0.2500000   0.5833333), wk =   0.0277778
        k(   25) = (   0.5000000  -0.1666667   0.5000000), wk =   0.0277778
        k(   26) = (   0.4166667  -0.0833333   0.4166667), wk =   0.0277778
        k(   27) = (   0.3333333   0.0000000   0.3333333), wk =   0.0138889
        k(   28) = (   0.0000000   0.5000000   0.0000000), wk =   0.0069444
        k(   29) = (  -0.0833333   0.5833333  -0.0833333), wk =   0.0277778
        k(   30) = (  -0.1666667   0.6666667  -0.1666667), wk =   0.0277778
        k(   31) = (   0.7500000  -0.2500000   0.7500000), wk =   0.0277778
        k(   32) = (   0.6666667  -0.1666667   0.6666667), wk =   0.0277778
        k(   33) = (   0.5833333  -0.0833333   0.5833333), wk =   0.0277778
        k(   34) = (   0.5000000   0.0000000   0.5000000), wk =   0.0138889
        k(   35) = (   0.0000000   0.6666667   0.0000000), wk =   0.0069444
        k(   36) = (  -0.0833333   0.7500000  -0.0833333), wk =   0.0277778
        k(   37) = (   0.8333333  -0.1666667   0.8333333), wk =   0.0277778
        k(   38) = (   0.7500000  -0.0833333   0.7500000), wk =   0.0277778
        k(   39) = (   0.6666667   0.0000000   0.6666667), wk =   0.0138889
        k(   40) = (   0.0000000   0.8333333   0.0000000), wk =   0.0069444
        k(   41) = (   0.9166667  -0.0833333   0.9166667), wk =   0.0277778
        k(   42) = (   0.8333333   0.0000000   0.8333333), wk =   0.0138889
        k(   43) = (   0.0000000  -1.0000000   0.0000000), wk =   0.0034722
        k(   44) = (  -0.1666667   0.3333333   0.0000000), wk =   0.0277778
        k(   45) = (  -0.2500000   0.4166667  -0.0833333), wk =   0.0555556
        k(   46) = (  -0.3333333   0.5000000  -0.1666667), wk =   0.0555556
        k(   47) = (   0.5833333  -0.4166667   0.7500000), wk =   0.0555556
        k(   48) = (   0.5000000  -0.3333333   0.6666667), wk =   0.0277778
        k(   49) = (  -0.1666667   0.5000000   0.0000000), wk =   0.0277778
        k(   50) = (  -0.2500000   0.5833333  -0.0833333), wk =   0.0555556
        k(   51) = (   0.6666667  -0.3333333   0.8333333), wk =   0.0555556
        k(   52) = (   0.5833333  -0.2500000   0.7500000), wk =   0.0555556
        k(   53) = (   0.5000000  -0.1666667   0.6666667), wk =   0.0555556
        k(   54) = (   0.4166667  -0.0833333   0.5833333), wk =   0.0555556
        k(   55) = (   0.3333333   0.0000000   0.5000000), wk =   0.0277778
        k(   56) = (  -0.1666667   0.6666667  -0.0000000), wk =   0.0277778
        k(   57) = (   0.7500000  -0.2500000   0.9166667), wk =   0.0555556
        k(   58) = (   0.6666667  -0.1666667   0.8333333), wk =   0.0555556
        k(   59) = (   0.5833333  -0.0833333   0.7500000), wk =   0.0555556
        k(   60) = (   0.5000000   0.0000000   0.6666667), wk =   0.0277778
        k(   61) = (   0.8333333  -0.1666667   1.0000000), wk =   0.0277778
        k(   62) = (   0.7500000  -0.0833333   0.9166667), wk =   0.0555556
        k(   63) = (   0.6666667   0.0000000   0.8333333), wk =   0.0277778
        k(   64) = (  -0.1666667  -1.0000000   0.0000000), wk =   0.0138889
        k(   65) = (   0.6666667  -0.3333333   1.0000000), wk =   0.0277778
        k(   66) = (   0.5833333  -0.2500000   0.9166667), wk =   0.0555556
        k(   67) = (   0.5000000  -0.1666667   0.8333333), wk =   0.0277778
        k(   68) = (   0.6666667  -0.1666667   1.0000000), wk =   0.0277778
        k(   69) = (   0.5833333  -0.0833333   0.9166667), wk =   0.0555556
        k(   70) = (   0.5000000   0.0000000   0.8333333), wk =   0.0277778
        k(   71) = (  -0.3333333  -1.0000000   0.0000000), wk =   0.0138889
        k(   72) = (  -0.5000000  -1.0000000   0.0000000), wk =   0.0069444

     Dense  grid:     4015 G-vectors     FFT dimensions: (  24,  24,  24)

     Smooth grid:     1459 G-vectors     FFT dimensions: (  15,  15,  15)

     Estimated max dynamical RAM per process >       2.71 MB

     Estimated total dynamical RAM >       5.42 MB

     Initial potential from superposition of free atoms

     starting charge       2.9975, renormalised to       3.0000
     Starting wfcs are    4 randomized atomic wfcs +    2 random wfcs

     total cpu time spent up to now is        0.2 secs

     Self-consistent Calculation

     iteration #  1     ecut=    15.00 Ry     beta= 0.70
     Davidson diagonalization with overlap
     ethr =  1.00E-02,  avg # of iterations =  5.0

     Threshold (ethr) on eigenvalues was too large:
     Diagonalizing with lowered threshold

     Davidson diagonalization with overlap
     ethr =  1.98E-04,  avg # of iterations =  2.8

     total cpu time spent up to now is        0.3 secs

     total energy              =     -12.41465101 Ry
     estimated scf accuracy    <       0.00585260 Ry

     iteration #  2     ecut=    15.00 Ry     beta= 0.70
     Davidson diagonalization with overlap
     ethr =  1.95E-04,  avg # of iterations =  1.0

     total cpu time spent up to now is        0.3 secs

     total energy              =     -12.41477137 Ry
     estimated scf accuracy    <       0.00026767 Ry

     iteration #  3     ecut=    15.00 Ry     beta= 0.70
     Davidson diagonalization with overlap
     ethr =  8.92E-06,  avg # of iterations =  2.9

     total cpu time spent up to now is        0.4 secs

     total energy              =     -12.41479230 Ry
     estimated scf accuracy    <       0.00000079 Ry

     iteration #  4     ecut=    15.00 Ry     beta= 0.70
     Davidson diagonalization with overlap
     c_bands:  1 eigenvalues not converged
     ethr =  2.64E-08,  avg # of iterations =  2.6

     total cpu time spent up to now is        0.4 secs

     total energy              =     -12.41479310 Ry
     estimated scf accuracy    <       0.00000007 Ry

     iteration #  5     ecut=    15.00 Ry     beta= 0.70
     Davidson diagonalization with overlap
     ethr =  2.21E-09,  avg # of iterations =  1.4

     total cpu time spent up to now is        0.4 secs

     End of self-consistent calculation

          k = 0.0000 0.0000 0.0000 (   169 PWs)   bands (ev):

    -4.4983  12.5671  12.5671  12.5671  14.0500  14.0500

          k =-0.0833 0.0833-0.0833 (   172 PWs)   bands (ev):

    -4.3632  10.9587  12.1963  12.1963  14.3472  14.5748

          k =-0.1667 0.1667-0.1667 (   172 PWs)   bands (ev):

    -3.9587   8.5640  11.6624  11.6625  14.1876  15.2782

          k =-0.2500 0.2500-0.2500 (   177 PWs)   bands (ev):

    -3.2878   6.2200  11.2674  11.2674  13.9533  14.8685

          k =-0.3333 0.3333-0.3333 (   183 PWs)   bands (ev):

    -2.3578   4.0641  11.0418  11.0418  13.8184  14.0609

          k =-0.4167 0.4167-0.4167 (   174 PWs)   bands (ev):

    -1.1929   2.1570  10.9583  10.9583  13.4728  13.4728

          k = 0.5000-0.5000 0.5000 (   180 PWs)   bands (ev):

    -0.1739   0.8891  10.9427  10.9427  13.2502  13.8140

          k = 0.0000 0.1667 0.0000 (   173 PWs)   bands (ev):

    -4.3182  11.4442  11.4442  12.0167  13.0737  15.3980

          k =-0.0833 0.2500-0.0833 (   174 PWs)   bands (ev):

    -4.0034   9.4488  10.8015  11.7043  13.2867  15.5288

          k =-0.1667 0.3333-0.1667 (   172 PWs)   bands (ev):

    -3.4211   7.0890  10.3598  11.1935  13.4123  15.0802

          k =-0.2500 0.4167-0.2500 (   177 PWs)   bands (ev):

    -2.5767   4.8677  10.1354  10.7150  12.8073  15.0395

          k =-0.3333 0.5000-0.3333 (   176 PWs)   bands (ev):

    -1.4848   2.8736  10.1325  10.2428  12.4528  14.6787

          k = 0.5833-0.4167 0.5833 (   174 PWs)   bands (ev):

    -0.2606   1.2361   9.8013  10.3375  12.5116  14.1020

          k = 0.5000-0.3333 0.5000 (   174 PWs)   bands (ev):

    -0.6544   1.7129   9.4799  10.7206  12.9261  13.8039

          k = 0.4167-0.2500 0.4167 (   177 PWs)   bands (ev):

    -1.8745   3.5108   9.3416  11.2268  13.6275  13.8402

          k = 0.3333-0.1667 0.3333 (   174 PWs)   bands (ev):

    -2.8869   5.5885   9.4206  11.7743  14.2474  14.5069

          k = 0.2500-0.0833 0.2500 (   172 PWs)   bands (ev):

    -3.6448   7.8704   9.7254  12.2955  14.7567  14.7606

          k = 0.1667-0.0000 0.1667 (   174 PWs)   bands (ev):

    -4.1383  10.2182  10.2794  12.6100  14.3943  14.6325

          k = 0.0000 0.3333 0.0000 (   173 PWs)   bands (ev):

    -3.7787  10.0769  10.0769  10.7364  11.6403  13.9315

          k =-0.0833 0.4167-0.0833 (   173 PWs)   bands (ev):

    -3.2860   8.1408   9.5596  10.2003  11.7980  13.1756

          k =-0.1667 0.5000-0.1667 (   178 PWs)   bands (ev):

    -2.5295   5.9033   9.2717   9.4217  11.4839  14.2242

          k =-0.2500 0.5833-0.2500 (   180 PWs)   bands (ev):

    -1.5187   3.8421   8.6297   9.2160  11.2619  15.7114

          k = 0.6667-0.3333 0.6667 (   178 PWs)   bands (ev):

    -0.3001   2.0516   7.9560   9.3933  11.3755  15.7495

          k = 0.5833-0.2500 0.5833 (   178 PWs)   bands (ev):

     0.0915   1.5789   7.4708   9.7956  11.7894  15.2885

          k = 0.5000-0.1667 0.5000 (   179 PWs)   bands (ev):

    -1.1322   3.2146   7.2101  10.4022  12.4757  15.0781

          k = 0.4167-0.0833 0.4167 (   176 PWs)   bands (ev):

    -2.2216   5.2023   7.1880  11.1756  13.4082  15.1435

          k = 0.3333 0.0000 0.3333 (   172 PWs)   bands (ev):

    -3.0641   7.3862   7.4291  11.9732  14.5156  15.4418

          k = 0.0000 0.5000 0.0000 (   178 PWs)   bands (ev):

    -2.8834   8.8672   8.9664   8.9664  10.4361  11.6859

          k =-0.0833 0.5833-0.0833 (   177 PWs)   bands (ev):

    -2.2159   7.0398   8.0754   8.6037  10.4827  11.8395

          k =-0.1667 0.6667-0.1667 (   181 PWs)   bands (ev):

    -1.2908   5.0132   7.0289   8.4758  10.3459  13.4405

          k = 0.7500-0.2500 0.7500 (   184 PWs)   bands (ev):

    -0.1315   3.1517   6.1798   8.5878  10.4365  15.3561

          k = 0.6667-0.1667 0.6667 (   180 PWs)   bands (ev):

     0.8838   1.9036   5.5645   8.9335  10.8019  17.1943

          k = 0.5833-0.0833 0.5833 (   179 PWs)   bands (ev):

    -0.1427   3.1801   5.1938   9.5054  11.4329  16.8239

          k = 0.5000 0.0000 0.5000 (   180 PWs)   bands (ev):

    -1.2990   5.0201   5.1220  10.2790  12.3140  16.5070

          k = 0.0000 0.6667 0.0000 (   174 PWs)   bands (ev):

    -1.6379   6.4831   8.1637   8.1637   9.5593  10.4221

          k =-0.0833 0.7500-0.0833 (   181 PWs)   bands (ev):

    -0.8009   5.2734   6.6820   7.9588   9.6860  11.0939

          k = 0.8333-0.1667 0.8333 (   184 PWs)   bands (ev):

     0.2811   4.0847   5.0108   7.9943   9.7516  12.9585

          k = 0.7500-0.0833 0.7500 (   182 PWs)   bands (ev):

     1.4923   2.7912   3.9836   8.2696  10.0536  15.1048

          k = 0.6667 0.0000 0.6667 (   186 PWs)   bands (ev):

     1.0455   3.3099   3.5264   8.7770  10.6143  17.3078

          k = 0.0000 0.8333 0.0000 (   190 PWs)   bands (ev):

    -0.0529   4.0636   7.6754   7.6754   9.0215   9.7783

          k = 0.9167-0.0833 0.9167 (   186 PWs)   bands (ev):

     0.9441   3.0028   6.2806   7.6348   9.3048  10.7342

          k = 0.8333 0.0000 0.8333 (   180 PWs)   bands (ev):

     2.0385   2.2795   4.5866   7.8342   9.5625  12.7990

          k = 0.0000-1.0000 0.0000 (   190 PWs)   bands (ev):

     1.7834   1.9349   7.5140   7.5140   8.8435   9.5760

          k =-0.1667 0.3333 0.0000 (   170 PWs)   bands (ev):

    -3.5996   8.8303   8.8519  11.7165  13.1711  14.4377

          k =-0.2500 0.4167-0.0833 (   175 PWs)   bands (ev):

    -2.9302   6.5401   8.4551  11.0478  13.2142  14.6993

          k =-0.3333 0.5000-0.1667 (   180 PWs)   bands (ev):

    -2.0020   4.3981   8.2954  10.2298  12.9389  14.7144

          k = 0.5833-0.4167 0.7500 (   177 PWs)   bands (ev):

    -0.8389   2.4979   8.3376   9.5516  12.9004  14.0820

          k = 0.5000-0.3333 0.6667 (   172 PWs)   bands (ev):

     0.1816   1.2302   8.4306   9.2407  12.9624  13.7848

          k =-0.1667 0.5000 0.0000 (   176 PWs)   bands (ev):

    -2.7061   7.6285   7.6940   9.6256  12.0309  12.6561

          k =-0.2500 0.5833-0.0833 (   179 PWs)   bands (ev):

    -1.8649   5.5089   7.3797   8.6759  12.0569  13.8538

          k = 0.6667-0.3333 0.8333 (   182 PWs)   bands (ev):

    -0.7770   3.5401   7.1517   8.0335  12.0620  15.3411

          k = 0.5833-0.2500 0.7500 (   178 PWs)   bands (ev):

     0.4455   1.9137   6.7323   8.0453  12.3108  15.1837

          k = 0.5000-0.1667 0.6667 (   179 PWs)   bands (ev):

     0.0478   2.3951   6.3533   8.4947  12.7905  14.8346

          k = 0.4167-0.0833 0.5833 (   180 PWs)   bands (ev):

    -1.1681   4.1821   6.1773   9.2175  13.4450  14.7180

          k = 0.3333 0.0000 0.5000 (   175 PWs)   bands (ev):

    -2.1759   6.2087   6.2648  10.1412  14.0659  14.4659

          k =-0.1667 0.6667-0.0000 (   182 PWs)   bands (ev):

    -1.4637   6.3139   6.8550   7.5294  11.1920  11.6611

          k = 0.7500-0.2500 0.9167 (   180 PWs)   bands (ev):

    -0.4588   4.7146   5.8536   7.0804  11.3518  13.2338

          k = 0.6667-0.1667 0.8333 (   182 PWs)   bands (ev):

     0.7531   3.0187   5.0664   7.2035  11.5520  15.2394

          k = 0.5833-0.0833 0.7500 (   179 PWs)   bands (ev):

     1.1248   2.5915   4.5209   7.6294  11.9950  16.5997

          k = 0.5000 0.0000 0.6667 (   181 PWs)   bands (ev):

    -0.0903   4.1665   4.2786   8.3103  12.6602  16.5229

          k = 0.8333-0.1667 1.0000 (   183 PWs)   bands (ev):

     0.1164   4.1824   6.3498   6.6843  10.6821  11.1155

          k = 0.7500-0.0833 0.9167 (   181 PWs)   bands (ev):

     1.2635   3.2510   4.7380   6.6464  11.0039  12.9173

          k = 0.6667 0.0000 0.8333 (   180 PWs)   bands (ev):

     2.1061   2.7953   3.4855   7.0087  11.3844  15.1285

          k =-0.1667-1.0000 0.0000 (   186 PWs)   bands (ev):

     1.9274   2.1070   6.1813   6.4731  10.5089  10.9370

          k = 0.6667-0.3333 1.0000 (   178 PWs)   bands (ev):

    -0.9434   5.3446   5.3592   7.6181  13.6629  13.7048

          k = 0.5833-0.2500 0.9167 (   182 PWs)   bands (ev):

     0.2111   3.4947   5.3989   6.8133  13.7030  14.8675

          k = 0.5000-0.1667 0.8333 (   180 PWs)   bands (ev):

     1.2312   2.2366   5.4935   6.4649  13.7673  14.7553

          k = 0.6667-0.1667 1.0000 (   179 PWs)   bands (ev):

     0.6155   4.3095   4.8478   5.6740  13.1737  13.3230

          k = 0.5833-0.0833 0.9167 (   185 PWs)   bands (ev):

     1.8183   3.1355   4.1649   5.5038  13.4951  15.2653

          k = 0.5000 0.0000 0.8333 (   183 PWs)   bands (ev):

     1.3963   3.6531   3.7511   5.9824  13.9212  15.9844

          k =-0.3333-1.0000 0.0000 (   182 PWs)   bands (ev):

     2.3065   2.6232   4.6761   5.1856  13.0056  13.1826

          k =-0.5000-1.0000 0.0000 (   176 PWs)   bands (ev):

     2.5954   3.4819   3.4819   4.5785  14.9600  15.8338

     the Fermi energy is     3.6339 ev

!    total energy              =     -12.41479310 Ry
     estimated scf accuracy    <          1.2E-09 Ry
     smearing contrib. (-TS)   =       0.00010321 Ry
     internal energy E=F+TS    =     -12.41489632 Ry

     The total energy is F=E-TS. E is the sum of the following terms:
     one-electron contribution =       1.95539424 Ry
     hartree contribution      =       0.02448715 Ry
     xc contribution           =      -9.80991560 Ry
     ewald contribution        =      -4.58486212 Ry

     convergence has been achieved in   5 iterations

     Forces acting on atoms (cartesian axes, Ry/au):

     atom    1 type  1   force =     0.00000000    0.00000000    0.00000000

     Total force =     0.000000     Total SCF correction =     0.000000


     Computing stress (Cartesian axis) and pressure

          total   stress  (Ry/bohr**3)                   (kbar)     P=     -115.48
  -0.00078500   0.00000000  -0.00000000         -115.48        0.00       -0.00
  -0.00000000  -0.00078500   0.00000000           -0.00     -115.48        0.00
  -0.00000000   0.00000000  -0.00078500           -0.00        0.00     -115.48


     Writing all to output data dir /Users/zhy/Aluminum-from-First-Principles/convergence-runs/cutoff-kmesh/ecut-015.0-ry_k-12x12x12_degauss-0.050-ry/qe-out/aluminum_ecut-015p0-ry_k-12x12x12_degauss-0p050-ry.save/ :
     XML data file, charge density, pseudopotentials, collected wavefunctions

     init_run     :      0.14s CPU      0.14s WALL (       1 calls)
     electrons    :      0.23s CPU      0.26s WALL (       1 calls)
     forces       :      0.00s CPU      0.00s WALL (       1 calls)
     stress       :      0.01s CPU      0.01s WALL (       1 calls)

     Called by init_run:
     wfcinit      :      0.01s CPU      0.01s WALL (       1 calls)
     potinit      :      0.02s CPU      0.02s WALL (       1 calls)
     hinit0       :      0.11s CPU      0.11s WALL (       1 calls)

     Called by electrons:
     c_bands      :      0.19s CPU      0.22s WALL (       6 calls)
     sum_band     :      0.03s CPU      0.03s WALL (       6 calls)
     v_of_rho     :      0.01s CPU      0.01s WALL (       6 calls)
     newd         :      0.00s CPU      0.00s WALL (       6 calls)
     mix_rho      :      0.00s CPU      0.00s WALL (       6 calls)

     Called by c_bands:
     init_us_2    :      0.01s CPU      0.01s WALL (    1080 calls)
     cegterg      :      0.18s CPU      0.21s WALL (     432 calls)

     Called by *egterg:
     cdiaghg      :      0.03s CPU      0.04s WALL (    1495 calls)
     h_psi        :      0.13s CPU      0.15s WALL (    1639 calls)
     s_psi        :      0.00s CPU      0.00s WALL (    1639 calls)
     g_psi        :      0.00s CPU      0.00s WALL (    1135 calls)

     Called by h_psi:
     h_psi:calbec :      0.00s CPU      0.01s WALL (    1639 calls)
     vloc_psi     :      0.12s CPU      0.14s WALL (    1639 calls)
     add_vuspsi   :      0.00s CPU      0.00s WALL (    1639 calls)

     General routines
     calbec       :      0.01s CPU      0.01s WALL (    3295 calls)
     fft          :      0.10s CPU      0.10s WALL (     102 calls)
     ffts         :      0.01s CPU      0.01s WALL (      12 calls)
     fftw         :      0.13s CPU      0.14s WALL (   16528 calls)
     interpolate  :      0.01s CPU      0.01s WALL (       6 calls)

     Parallel routines

     PWSCF        :      0.40s CPU      0.45s WALL


   This run was terminated on:  23:45:13  22Sep2026            

=------------------------------------------------------------------------------=
   JOB DONE.
=------------------------------------------------------------------------------=
Note: The following floating-point exceptions are signalling: IEEE_UNDERFLOW_FLAG
Note: The following floating-point exceptions are signalling: IEEE_INVALID_FLAG IEEE_DIVIDE_BY_ZERO IEEE_UNDERFLOW_FLAG
