
     Program PWSCF v.7.6 starts on 23Sep2026 at  1:27:48 

     This program is part of the open-source Quantum ESPRESSO suite
     for quantum simulation of materials; please cite
         "P. Giannozzi et al., J. Phys.:Condens. Matter 21 395502 (2009);
         "P. Giannozzi et al., J. Phys.:Condens. Matter 29 465901 (2017);
         "P. Giannozzi et al., J. Chem. Phys. 152 154105 (2020);
          URL http://www.quantum-espresso.org", 
     in publications or presentations arising from this work. More details at
     http://www.quantum-espresso.org/quote

     Parallel version (MPI), running on     2 processors

     MPI processes distributed on     1 nodes
     0 MiB available memory on the printing compute node when the environment starts

     Reading input from Al.scf.inp

     Current dimensions of program PWSCF are:
     Max number of different atomic species (ntypx) = 10
     Max number of k-points (npk) =  40000
     Max angular momentum in pseudopotentials (lmaxx) =  4

     R & G space division:  proc/nbgrp/npool/nimage =       2
     Subspace diagonalization in iterative solution of the eigenvalue problem:
     a serial algorithm will be used


     Parallelization info
     --------------------
     sticks:   dense  smooth     PW     G-vecs:    dense   smooth      PW
     Min         384     189     60                 7164     2513     469
     Max         385     190     61                 7167     2516     472
     Sum         769     379    121                14331     5029     941

     Using Slab Decomposition



     bravais-lattice index     =            2
     lattice parameter (alat)  =       9.0000  a.u.
     unit-cell volume          =     182.2500 (a.u.)^3
     number of atoms/cell      =            1
     number of atomic types    =            1
     number of electrons       =         3.00
     number of Kohn-Sham states=            6
     kinetic-energy cutoff     =      35.0000  Ry
     charge density cutoff     =     280.0000  Ry
     scf convergence threshold =      1.0E-08
     mixing beta               =       0.7000
     number of iterations used =            8  plain     mixing
     Exchange-correlation= SLA  PW   PBE  PBE
                           (   1   4   3   4   0   0   0)

     celldm(1)=   9.000000  celldm(2)=   0.000000  celldm(3)=   0.000000
     celldm(4)=   0.000000  celldm(5)=   0.000000  celldm(6)=   0.000000

     crystal axes: (cart. coord. in units of alat)
               a(1) = (  -0.500000   0.000000   0.500000 )  
               a(2) = (   0.000000   0.500000   0.500000 )  
               a(3) = (  -0.500000   0.500000   0.000000 )  

     reciprocal axes: (cart. coord. in units 2 pi/alat)
               b(1) = ( -1.000000 -1.000000  1.000000 )  
               b(2) = (  1.000000  1.000000  1.000000 )  
               b(3) = ( -1.000000  1.000000 -1.000000 )  


     PseudoPot. # 1 for Al read from file:
     /Users/zhy/Aluminum-from-First-Principles/Al.pbe-n-van.UPF
     MD5 check sum: cbc97ad259b400557db688b98a6ada97
     Pseudo is Ultrasoft + core correction, Zval =  3.0
     Generated by new atomic code, or converted to UPF format
     Using radial grid of  893 points,  2 beta functions with: 
                l(1) =   0
                l(2) =   1
     Q(r) pseudized with  8 coefficients,  rinner =    0.900   0.900   0.900


     atomic species   valence    mass     pseudopotential
     Al                3.00    26.98200     Al( 1.00)

     48 Sym. Ops., with inversion, found



   Cartesian axes

     site n.     atom                  positions (alat units)
         1        Al     tau(   1) = (   0.0000000   0.0000000   0.0000000  )

     number of k points=    29  Methfessel-Paxton smearing, width (Ry)=  0.0500
                       cart. coord. in units 2pi/alat
        k(    1) = (   0.0000000   0.0000000   0.0000000), wk =   0.0039062
        k(    2) = (  -0.1250000   0.1250000  -0.1250000), wk =   0.0312500
        k(    3) = (  -0.2500000   0.2500000  -0.2500000), wk =   0.0312500
        k(    4) = (  -0.3750000   0.3750000  -0.3750000), wk =   0.0312500
        k(    5) = (   0.5000000  -0.5000000   0.5000000), wk =   0.0156250
        k(    6) = (   0.0000000   0.2500000   0.0000000), wk =   0.0234375
        k(    7) = (  -0.1250000   0.3750000  -0.1250000), wk =   0.0937500
        k(    8) = (  -0.2500000   0.5000000  -0.2500000), wk =   0.0937500
        k(    9) = (   0.6250000  -0.3750000   0.6250000), wk =   0.0937500
        k(   10) = (   0.5000000  -0.2500000   0.5000000), wk =   0.0937500
        k(   11) = (   0.3750000  -0.1250000   0.3750000), wk =   0.0937500
        k(   12) = (   0.2500000   0.0000000   0.2500000), wk =   0.0468750
        k(   13) = (   0.0000000   0.5000000   0.0000000), wk =   0.0234375
        k(   14) = (  -0.1250000   0.6250000  -0.1250000), wk =   0.0937500
        k(   15) = (   0.7500000  -0.2500000   0.7500000), wk =   0.0937500
        k(   16) = (   0.6250000  -0.1250000   0.6250000), wk =   0.0937500
        k(   17) = (   0.5000000   0.0000000   0.5000000), wk =   0.0468750
        k(   18) = (   0.0000000   0.7500000   0.0000000), wk =   0.0234375
        k(   19) = (   0.8750000  -0.1250000   0.8750000), wk =   0.0937500
        k(   20) = (   0.7500000   0.0000000   0.7500000), wk =   0.0468750
        k(   21) = (   0.0000000  -1.0000000   0.0000000), wk =   0.0117188
        k(   22) = (  -0.2500000   0.5000000   0.0000000), wk =   0.0937500
        k(   23) = (   0.6250000  -0.3750000   0.8750000), wk =   0.1875000
        k(   24) = (   0.5000000  -0.2500000   0.7500000), wk =   0.0937500
        k(   25) = (   0.7500000  -0.2500000   1.0000000), wk =   0.0937500
        k(   26) = (   0.6250000  -0.1250000   0.8750000), wk =   0.1875000
        k(   27) = (   0.5000000   0.0000000   0.7500000), wk =   0.0937500
        k(   28) = (  -0.2500000  -1.0000000   0.0000000), wk =   0.0468750
        k(   29) = (  -0.5000000  -1.0000000   0.0000000), wk =   0.0234375

     Dense  grid:    14331 G-vectors     FFT dimensions: (  36,  36,  36)

     Smooth grid:     5029 G-vectors     FFT dimensions: (  24,  24,  24)

     Estimated max dynamical RAM per process >       8.18 MB

     Estimated total dynamical RAM >      16.35 MB

     Initial potential from superposition of free atoms

     starting charge       2.9975, renormalised to       3.0000
     Starting wfcs are    4 randomized atomic wfcs +    2 random wfcs

     total cpu time spent up to now is        0.3 secs

     Self-consistent Calculation

     iteration #  1     ecut=    35.00 Ry     beta= 0.70
     Davidson diagonalization with overlap
     ethr =  1.00E-02,  avg # of iterations =  5.0

     Threshold (ethr) on eigenvalues was too large:
     Diagonalizing with lowered threshold

     Davidson diagonalization with overlap
     ethr =  1.78E-04,  avg # of iterations =  3.5

     total cpu time spent up to now is        0.5 secs

     total energy              =     -12.41824239 Ry
     estimated scf accuracy    <       0.00518774 Ry

     iteration #  2     ecut=    35.00 Ry     beta= 0.70
     Davidson diagonalization with overlap
     ethr =  1.73E-04,  avg # of iterations =  1.0

     total cpu time spent up to now is        0.5 secs

     total energy              =     -12.41836596 Ry
     estimated scf accuracy    <       0.00024216 Ry

     iteration #  3     ecut=    35.00 Ry     beta= 0.70
     Davidson diagonalization with overlap
     ethr =  8.07E-06,  avg # of iterations =  3.7

     total cpu time spent up to now is        0.6 secs

     total energy              =     -12.41839997 Ry
     estimated scf accuracy    <       0.00000116 Ry

     iteration #  4     ecut=    35.00 Ry     beta= 0.70
     Davidson diagonalization with overlap
     c_bands:  1 eigenvalues not converged
     ethr =  3.88E-08,  avg # of iterations =  3.6

     total cpu time spent up to now is        0.6 secs

     total energy              =     -12.41840129 Ry
     estimated scf accuracy    <       0.00000007 Ry

     iteration #  5     ecut=    35.00 Ry     beta= 0.70
     Davidson diagonalization with overlap
     ethr =  2.35E-09,  avg # of iterations =  1.5

     total cpu time spent up to now is        0.7 secs

     End of self-consistent calculation

          k = 0.0000 0.0000 0.0000 (   609 PWs)   bands (ev):

    -4.4985  12.4185  12.4185  12.4185  13.9212  13.9212

          k =-0.1250 0.1250-0.1250 (   631 PWs)   bands (ev):

    -4.1954   9.6797  11.7892  11.7892  14.1626  14.8379

          k =-0.2500 0.2500-0.2500 (   631 PWs)   bands (ev):

    -3.2909   6.1695  11.1499  11.1499  13.7987  14.7253

          k =-0.3750 0.3750-0.3750 (   622 PWs)   bands (ev):

    -1.8078   3.0465  10.8735  10.8735  13.6093  13.6242

          k = 0.5000-0.5000 0.5000 (   628 PWs)   bands (ev):

    -0.1823   0.8664  10.8296  10.8296  13.1446  13.6225

          k = 0.0000 0.2500 0.0000 (   629 PWs)   bands (ev):

    -4.0943  10.6289  10.6289  11.3041  12.2519  15.2456

          k =-0.1250 0.3750-0.1250 (   632 PWs)   bands (ev):

    -3.3900   7.5330   9.8424  10.6167  12.5114  14.1516

          k =-0.2500 0.5000-0.2500 (   629 PWs)   bands (ev):

    -2.0965   4.2782   9.5535   9.6824  11.8346  15.4416

          k = 0.6250-0.3750 0.6250 (   634 PWs)   bands (ev):

    -0.3116   1.5775   8.8066   9.7680  11.8392  14.7322

          k = 0.5000-0.2500 0.5000 (   632 PWs)   bands (ev):

    -0.9369   2.3877   8.2746  10.4437  12.5709  14.2470

          k = 0.3750-0.1250 0.3750 (   633 PWs)   bands (ev):

    -2.5919   5.3202   8.2278  11.4429  13.8690  14.4237

          k = 0.2500 0.0000 0.2500 (   620 PWs)   bands (ev):

    -3.6916   8.6992   8.7086  12.3245  14.7032  14.9257

          k = 0.0000 0.5000 0.0000 (   632 PWs)   bands (ev):

    -2.8875   8.7777   8.8862   8.8862  10.3603  11.6092

          k =-0.1250 0.6250-0.1250 (   635 PWs)   bands (ev):

    -1.7920   5.9671   7.4672   8.4362  10.3235  12.4609

          k = 0.7500-0.2500 0.7500 (   643 PWs)   bands (ev):

    -0.1434   3.1220   6.1299   8.5133  10.3582  15.2115

          k = 0.6250-0.1250 0.6250 (   641 PWs)   bands (ev):

     0.4678   2.3440   5.3042   9.1100  10.9994  16.7949

          k = 0.5000 0.0000 0.5000 (   636 PWs)   bands (ev):

    -1.3074   4.9775   5.0814  10.1806  12.2155  16.3332

          k = 0.0000 0.7500 0.0000 (   632 PWs)   bands (ev):

    -0.8972   5.2123   7.8133   7.8133   9.1764   9.9611

          k = 0.8750-0.1250 0.8750 (   644 PWs)   bands (ev):

     0.5662   3.5945   5.4706   7.7203   9.4320  11.6999

          k = 0.7500 0.0000 0.7500 (   632 PWs)   bands (ev):

     2.0076   2.6790   3.3835   8.1599   9.9301  14.9250

          k = 0.0000-1.0000 0.0000 (   636 PWs)   bands (ev):

     1.7677   1.9081   7.4527   7.4527   8.7776   9.5005

          k =-0.2500 0.5000 0.0000 (   630 PWs)   bands (ev):

    -2.4900   6.8600   6.8698   9.7881  13.0946  13.4147

          k = 0.6250-0.3750 0.8750 (   640 PWs)   bands (ev):

    -1.0141   3.7966   6.7089   8.4272  13.0518  14.5569

          k = 0.5000-0.2500 0.7500 (   638 PWs)   bands (ev):

     0.6106   1.6277   6.8414   7.7613  13.1461  14.0540

          k = 0.7500-0.2500 1.0000 (   652 PWs)   bands (ev):

    -0.5119   5.1873   5.7274   6.4998  11.9925  12.2805

          k = 0.6250-0.1250 0.8750 (   643 PWs)   bands (ev):

     1.2549   3.0176   4.5495   6.2685  12.3861  15.0872

          k = 0.5000 0.0000 0.7500 (   643 PWs)   bands (ev):

     0.6115   3.8310   3.9439   7.0546  13.1345  16.0393

          k =-0.2500-1.0000 0.0000 (   642 PWs)   bands (ev):

     2.0800   2.2937   5.3479   5.7404  11.6188  11.9121

          k =-0.5000-1.0000 0.0000 (   648 PWs)   bands (ev):

     2.5777   3.4472   3.4472   4.5415  14.7994  15.6916

     the Fermi energy is     3.6012 ev

!    total energy              =     -12.41840129 Ry
     estimated scf accuracy    <          1.8E-09 Ry
     smearing contrib. (-TS)   =      -0.00100858 Ry
     internal energy E=F+TS    =     -12.41739271 Ry

     The total energy is F=E-TS. E is the sum of the following terms:
     one-electron contribution =       1.96136567 Ry
     hartree contribution      =       0.02523323 Ry
     xc contribution           =      -9.81912954 Ry
     ewald contribution        =      -4.58486207 Ry

     convergence has been achieved in   5 iterations

     Forces acting on atoms (cartesian axes, Ry/au):

     atom    1 type  1   force =     0.00000000    0.00000000    0.00000000

     Total force =     0.000000     Total SCF correction =     0.000000


     Computing stress (Cartesian axis) and pressure

          total   stress  (Ry/bohr**3)                   (kbar)     P=     -115.04
  -0.00078203   0.00000000  -0.00000000         -115.04        0.00       -0.00
   0.00000000  -0.00078203  -0.00000000            0.00     -115.04       -0.00
  -0.00000000  -0.00000000  -0.00078203           -0.00       -0.00     -115.04


     Writing all to output data dir /Users/zhy/Aluminum-from-First-Principles/convergence-runs/smearing/ecut-035.0-ry_k-08x08x08_degauss-0.050-ry/qe-out/aluminum_ecut-035p0-ry_k-08x08x08_degauss-0p050-ry.save/ :
     XML data file, charge density, pseudopotentials, collected wavefunctions

     init_run     :      0.30s CPU      0.30s WALL (       1 calls)
     electrons    :      0.35s CPU      0.37s WALL (       1 calls)
     forces       :      0.01s CPU      0.01s WALL (       1 calls)
     stress       :      0.02s CPU      0.02s WALL (       1 calls)

     Called by init_run:
     wfcinit      :      0.02s CPU      0.02s WALL (       1 calls)
     potinit      :      0.10s CPU      0.10s WALL (       1 calls)
     hinit0       :      0.17s CPU      0.17s WALL (       1 calls)

     Called by electrons:
     c_bands      :      0.26s CPU      0.28s WALL (       6 calls)
     sum_band     :      0.05s CPU      0.06s WALL (       6 calls)
     v_of_rho     :      0.03s CPU      0.03s WALL (       6 calls)
     newd         :      0.01s CPU      0.01s WALL (       6 calls)
     mix_rho      :      0.00s CPU      0.00s WALL (       6 calls)

     Called by c_bands:
     init_us_2    :      0.01s CPU      0.01s WALL (     435 calls)
     cegterg      :      0.26s CPU      0.27s WALL (     174 calls)

     Called by *egterg:
     cdiaghg      :      0.02s CPU      0.02s WALL (     672 calls)
     h_psi        :      0.23s CPU      0.24s WALL (     730 calls)
     s_psi        :      0.00s CPU      0.00s WALL (     730 calls)
     g_psi        :      0.00s CPU      0.00s WALL (     527 calls)

     Called by h_psi:
     h_psi:calbec :      0.00s CPU      0.00s WALL (     730 calls)
     vloc_psi     :      0.23s CPU      0.24s WALL (     730 calls)
     add_vuspsi   :      0.00s CPU      0.00s WALL (     730 calls)

     General routines
     calbec       :      0.01s CPU      0.01s WALL (    1397 calls)
     fft          :      0.15s CPU      0.16s WALL (     102 calls)
     ffts         :      0.10s CPU      0.10s WALL (      12 calls)
     fftw         :      0.24s CPU      0.25s WALL (    6988 calls)
     interpolate  :      0.10s CPU      0.10s WALL (       6 calls)

     Parallel routines

     PWSCF        :      0.69s CPU      0.72s WALL


   This run was terminated on:   1:27:49  23Sep2026            

=------------------------------------------------------------------------------=
   JOB DONE.
=------------------------------------------------------------------------------=
Note: The following floating-point exceptions are signalling: IEEE_INVALID_FLAG IEEE_DIVIDE_BY_ZERO IEEE_UNDERFLOW_FLAG
Note: The following floating-point exceptions are signalling: IEEE_UNDERFLOW_FLAG
