
     Program PWSCF v.7.6 starts on 22Sep2026 at 23:45:15 

     This program is part of the open-source Quantum ESPRESSO suite
     for quantum simulation of materials; please cite
         "P. Giannozzi et al., J. Phys.:Condens. Matter 21 395502 (2009);
         "P. Giannozzi et al., J. Phys.:Condens. Matter 29 465901 (2017);
         "P. Giannozzi et al., J. Chem. Phys. 152 154105 (2020);
          URL http://www.quantum-espresso.org", 
     in publications or presentations arising from this work. More details at
     http://www.quantum-espresso.org/quote

     Parallel version (MPI), running on     2 processors

     MPI processes distributed on     1 nodes
     0 MiB available memory on the printing compute node when the environment starts

     Reading input from Al.scf.inp

     Current dimensions of program PWSCF are:
     Max number of different atomic species (ntypx) = 10
     Max number of k-points (npk) =  40000
     Max angular momentum in pseudopotentials (lmaxx) =  4

     R & G space division:  proc/nbgrp/npool/nimage =       2
     Subspace diagonalization in iterative solution of the eigenvalue problem:
     a serial algorithm will be used


     Parallelization info
     --------------------
     sticks:   dense  smooth     PW     G-vecs:    dense   smooth      PW
     Min         219     111     42                 3115     1114     229
     Max         220     112     43                 3116     1115     230
     Sum         439     223     85                 6231     2229     459

     Using Slab Decomposition



     bravais-lattice index     =            2
     lattice parameter (alat)  =       9.0000  a.u.
     unit-cell volume          =     182.2500 (a.u.)^3
     number of atoms/cell      =            1
     number of atomic types    =            1
     number of electrons       =         3.00
     number of Kohn-Sham states=            6
     kinetic-energy cutoff     =      20.0000  Ry
     charge density cutoff     =     160.0000  Ry
     scf convergence threshold =      1.0E-08
     mixing beta               =       0.7000
     number of iterations used =            8  plain     mixing
     Exchange-correlation= SLA  PW   PBE  PBE
                           (   1   4   3   4   0   0   0)

     celldm(1)=   9.000000  celldm(2)=   0.000000  celldm(3)=   0.000000
     celldm(4)=   0.000000  celldm(5)=   0.000000  celldm(6)=   0.000000

     crystal axes: (cart. coord. in units of alat)
               a(1) = (  -0.500000   0.000000   0.500000 )  
               a(2) = (   0.000000   0.500000   0.500000 )  
               a(3) = (  -0.500000   0.500000   0.000000 )  

     reciprocal axes: (cart. coord. in units 2 pi/alat)
               b(1) = ( -1.000000 -1.000000  1.000000 )  
               b(2) = (  1.000000  1.000000  1.000000 )  
               b(3) = ( -1.000000  1.000000 -1.000000 )  


     PseudoPot. # 1 for Al read from file:
     /Users/zhy/Aluminum-from-First-Principles/Al.pbe-n-van.UPF
     MD5 check sum: cbc97ad259b400557db688b98a6ada97
     Pseudo is Ultrasoft + core correction, Zval =  3.0
     Generated by new atomic code, or converted to UPF format
     Using radial grid of  893 points,  2 beta functions with: 
                l(1) =   0
                l(2) =   1
     Q(r) pseudized with  8 coefficients,  rinner =    0.900   0.900   0.900


     atomic species   valence    mass     pseudopotential
     Al                3.00    26.98200     Al( 1.00)

     48 Sym. Ops., with inversion, found



   Cartesian axes

     site n.     atom                  positions (alat units)
         1        Al     tau(   1) = (   0.0000000   0.0000000   0.0000000  )

     number of k points=    16  Methfessel-Paxton smearing, width (Ry)=  0.0500
                       cart. coord. in units 2pi/alat
        k(    1) = (   0.0000000   0.0000000   0.0000000), wk =   0.0092593
        k(    2) = (  -0.1666667   0.1666667  -0.1666667), wk =   0.0740741
        k(    3) = (  -0.3333333   0.3333333  -0.3333333), wk =   0.0740741
        k(    4) = (   0.5000000  -0.5000000   0.5000000), wk =   0.0370370
        k(    5) = (   0.0000000   0.3333333   0.0000000), wk =   0.0555556
        k(    6) = (  -0.1666667   0.5000000  -0.1666667), wk =   0.2222222
        k(    7) = (   0.6666667  -0.3333333   0.6666667), wk =   0.2222222
        k(    8) = (   0.5000000  -0.1666667   0.5000000), wk =   0.2222222
        k(    9) = (   0.3333333   0.0000000   0.3333333), wk =   0.1111111
        k(   10) = (   0.0000000   0.6666667   0.0000000), wk =   0.0555556
        k(   11) = (   0.8333333  -0.1666667   0.8333333), wk =   0.2222222
        k(   12) = (   0.6666667   0.0000000   0.6666667), wk =   0.1111111
        k(   13) = (   0.0000000  -1.0000000   0.0000000), wk =   0.0277778
        k(   14) = (   0.6666667  -0.3333333   1.0000000), wk =   0.2222222
        k(   15) = (   0.5000000  -0.1666667   0.8333333), wk =   0.2222222
        k(   16) = (  -0.3333333  -1.0000000   0.0000000), wk =   0.1111111

     Dense  grid:     6231 G-vectors     FFT dimensions: (  25,  25,  25)

     Smooth grid:     2229 G-vectors     FFT dimensions: (  20,  20,  20)

     Estimated max dynamical RAM per process >       3.29 MB

     Estimated total dynamical RAM >       6.57 MB

     Initial potential from superposition of free atoms

     starting charge       2.9975, renormalised to       3.0000
     Starting wfcs are    4 randomized atomic wfcs +    2 random wfcs

     total cpu time spent up to now is        0.2 secs

     Self-consistent Calculation

     iteration #  1     ecut=    20.00 Ry     beta= 0.70
     Davidson diagonalization with overlap
     ethr =  1.00E-02,  avg # of iterations =  5.1

     Threshold (ethr) on eigenvalues was too large:
     Diagonalizing with lowered threshold

     Davidson diagonalization with overlap
     ethr =  2.04E-04,  avg # of iterations =  2.4

     total cpu time spent up to now is        0.2 secs

     total energy              =     -12.41875802 Ry
     estimated scf accuracy    <       0.00605957 Ry

     iteration #  2     ecut=    20.00 Ry     beta= 0.70
     Davidson diagonalization with overlap
     ethr =  2.02E-04,  avg # of iterations =  1.0

     total cpu time spent up to now is        0.2 secs

     total energy              =     -12.41888623 Ry
     estimated scf accuracy    <       0.00028023 Ry

     iteration #  3     ecut=    20.00 Ry     beta= 0.70
     Davidson diagonalization with overlap
     ethr =  9.34E-06,  avg # of iterations =  4.0

     total cpu time spent up to now is        0.2 secs

     total energy              =     -12.41891247 Ry
     estimated scf accuracy    <       0.00000081 Ry

     iteration #  4     ecut=    20.00 Ry     beta= 0.70
     Davidson diagonalization with overlap
     ethr =  2.69E-08,  avg # of iterations =  2.8

     total cpu time spent up to now is        0.3 secs

     total energy              =     -12.41891353 Ry
     estimated scf accuracy    <       0.00000005 Ry

     iteration #  5     ecut=    20.00 Ry     beta= 0.70
     Davidson diagonalization with overlap
     ethr =  1.73E-09,  avg # of iterations =  1.2

     total cpu time spent up to now is        0.3 secs

     End of self-consistent calculation

          k = 0.0000 0.0000 0.0000 (   283 PWs)   bands (ev):

    -4.5009  12.5097  12.5097  12.5097  13.9719  13.9720

          k =-0.1667 0.1667-0.1667 (   277 PWs)   bands (ev):

    -3.9618   8.5276  11.6173  11.6173  14.1252  15.1906

          k =-0.3333 0.3333-0.3333 (   281 PWs)   bands (ev):

    -2.3617   4.0522  10.9966  10.9966  13.7399  13.9882

          k = 0.5000-0.5000 0.5000 (   272 PWs)   bands (ev):

    -0.1790   0.8826  10.9024  10.9024  13.1876  13.7237

          k = 0.0000 0.3333 0.0000 (   283 PWs)   bands (ev):

    -3.7821  10.0376  10.0376  10.6887  11.5890  13.8784

          k =-0.1667 0.5000-0.1667 (   286 PWs)   bands (ev):

    -2.5339   5.8850   9.2347   9.3837  11.4343  14.1654

          k = 0.6667-0.3333 0.6667 (   277 PWs)   bands (ev):

    -0.3056   2.0432   7.9290   9.3607  11.3259  15.6646

          k = 0.5000-0.1667 0.5000 (   273 PWs)   bands (ev):

    -1.1367   3.2046   7.1869  10.3657  12.4251  15.0028

          k = 0.3333 0.0000 0.3333 (   279 PWs)   bands (ev):

    -3.0682   7.3568   7.4057  11.9218  14.4496  15.3656

          k = 0.0000 0.6667 0.0000 (   274 PWs)   bands (ev):

    -1.6423   6.4675   8.1357   8.1357   9.5096  10.3817

          k = 0.8333-0.1667 0.8333 (   272 PWs)   bands (ev):

     0.2753   4.0730   4.9934   7.9707   9.7103  12.9084

          k = 0.6667 0.0000 0.6667 (   268 PWs)   bands (ev):

     1.0395   3.2990   3.5159   8.7523  10.5745  17.2326

          k = 0.0000-1.0000 0.0000 (   286 PWs)   bands (ev):

     1.7752   1.9263   7.4884   7.4884   8.7970   9.5336

          k = 0.6667-0.3333 1.0000 (   274 PWs)   bands (ev):

    -0.9484   5.3299   5.3381   7.5934  13.6078  13.6532

          k = 0.5000-0.1667 0.8333 (   274 PWs)   bands (ev):

     1.2243   2.2275   5.4764   6.4437  13.7150  14.6814

          k =-0.3333-1.0000 0.0000 (   266 PWs)   bands (ev):

     2.2994   2.6144   4.6598   5.1696  12.9550  13.1366

     the Fermi energy is     3.6041 ev

!    total energy              =     -12.41891354 Ry
     estimated scf accuracy    <          1.7E-09 Ry
     smearing contrib. (-TS)   =      -0.00030771 Ry
     internal energy E=F+TS    =     -12.41860582 Ry

     The total energy is F=E-TS. E is the sum of the following terms:
     one-electron contribution =       1.95324020 Ry
     hartree contribution      =       0.02386198 Ry
     xc contribution           =      -9.81084587 Ry
     ewald contribution        =      -4.58486213 Ry

     convergence has been achieved in   5 iterations

     Forces acting on atoms (cartesian axes, Ry/au):

     atom    1 type  1   force =     0.00000000    0.00000000    0.00000000

     Total force =     0.000000     Total SCF correction =     0.000000


     Computing stress (Cartesian axis) and pressure

          total   stress  (Ry/bohr**3)                   (kbar)     P=     -123.93
  -0.00084246   0.00000000  -0.00000000         -123.93        0.00       -0.00
   0.00000000  -0.00084246   0.00000000            0.00     -123.93        0.00
  -0.00000000   0.00000000  -0.00084246           -0.00        0.00     -123.93


     Writing all to output data dir /Users/zhy/Aluminum-from-First-Principles/convergence-runs/cutoff-kmesh/ecut-020.0-ry_k-06x06x06_degauss-0.050-ry/qe-out/aluminum_ecut-020p0-ry_k-06x06x06_degauss-0p050-ry.save/ :
     XML data file, charge density, pseudopotentials, collected wavefunctions

     init_run     :      0.16s CPU      0.16s WALL (       1 calls)
     electrons    :      0.09s CPU      0.09s WALL (       1 calls)
     forces       :      0.00s CPU      0.00s WALL (       1 calls)
     stress       :      0.01s CPU      0.01s WALL (       1 calls)

     Called by init_run:
     wfcinit      :      0.02s CPU      0.02s WALL (       1 calls)
     potinit      :      0.09s CPU      0.09s WALL (       1 calls)
     hinit0       :      0.05s CPU      0.05s WALL (       1 calls)

     Called by electrons:
     c_bands      :      0.06s CPU      0.06s WALL (       6 calls)
     sum_band     :      0.02s CPU      0.02s WALL (       6 calls)
     v_of_rho     :      0.01s CPU      0.01s WALL (       6 calls)
     newd         :      0.00s CPU      0.00s WALL (       6 calls)
     mix_rho      :      0.00s CPU      0.00s WALL (       6 calls)

     Called by c_bands:
     init_us_2    :      0.00s CPU      0.00s WALL (     240 calls)
     cegterg      :      0.06s CPU      0.06s WALL (      96 calls)

     Called by *egterg:
     cdiaghg      :      0.01s CPU      0.01s WALL (     345 calls)
     h_psi        :      0.06s CPU      0.06s WALL (     377 calls)
     s_psi        :      0.00s CPU      0.00s WALL (     377 calls)
     g_psi        :      0.00s CPU      0.00s WALL (     265 calls)

     Called by h_psi:
     h_psi:calbec :      0.00s CPU      0.00s WALL (     377 calls)
     vloc_psi     :      0.06s CPU      0.06s WALL (     377 calls)
     add_vuspsi   :      0.00s CPU      0.00s WALL (     377 calls)

     General routines
     calbec       :      0.00s CPU      0.00s WALL (     745 calls)
     fft          :      0.04s CPU      0.04s WALL (     102 calls)
     ffts         :      0.08s CPU      0.08s WALL (      12 calls)
     fftw         :      0.06s CPU      0.06s WALL (    3710 calls)
     interpolate  :      0.08s CPU      0.08s WALL (       6 calls)

     Parallel routines

     PWSCF        :      0.27s CPU      0.28s WALL


   This run was terminated on:  23:45:15  22Sep2026            

=------------------------------------------------------------------------------=
   JOB DONE.
=------------------------------------------------------------------------------=
Note: The following floating-point exceptions are signalling: IEEE_UNDERFLOW_FLAG
Note: The following floating-point exceptions are signalling: IEEE_INVALID_FLAG IEEE_DIVIDE_BY_ZERO IEEE_UNDERFLOW_FLAG
