
     Program PWSCF v.7.6 starts on 23Sep2026 at  1:12:46 

     This program is part of the open-source Quantum ESPRESSO suite
     for quantum simulation of materials; please cite
         "P. Giannozzi et al., J. Phys.:Condens. Matter 21 395502 (2009);
         "P. Giannozzi et al., J. Phys.:Condens. Matter 29 465901 (2017);
         "P. Giannozzi et al., J. Chem. Phys. 152 154105 (2020);
          URL http://www.quantum-espresso.org", 
     in publications or presentations arising from this work. More details at
     http://www.quantum-espresso.org/quote

     Parallel version (MPI), running on     2 processors

     MPI processes distributed on     1 nodes
     0 MiB available memory on the printing compute node when the environment starts

     Reading input from Al.scf.inp

     Current dimensions of program PWSCF are:
     Max number of different atomic species (ntypx) = 10
     Max number of k-points (npk) =  40000
     Max angular momentum in pseudopotentials (lmaxx) =  4

     R & G space division:  proc/nbgrp/npool/nimage =       2
     Subspace diagonalization in iterative solution of the eigenvalue problem:
     a serial algorithm will be used


     Parallelization info
     --------------------
     sticks:   dense  smooth     PW     G-vecs:    dense   smooth      PW
     Min         501     249     81                10436     3694     681
     Max         502     250     82                10439     3697     682
     Sum        1003     499    163                20875     7391    1363

     Using Slab Decomposition



     bravais-lattice index     =            2
     lattice parameter (alat)  =       9.0000  a.u.
     unit-cell volume          =     182.2500 (a.u.)^3
     number of atoms/cell      =            1
     number of atomic types    =            1
     number of electrons       =         3.00
     number of Kohn-Sham states=            6
     kinetic-energy cutoff     =      45.0000  Ry
     charge density cutoff     =     360.0000  Ry
     scf convergence threshold =      1.0E-08
     mixing beta               =       0.7000
     number of iterations used =            8  plain     mixing
     Exchange-correlation= SLA  PW   PBE  PBE
                           (   1   4   3   4   0   0   0)

     celldm(1)=   9.000000  celldm(2)=   0.000000  celldm(3)=   0.000000
     celldm(4)=   0.000000  celldm(5)=   0.000000  celldm(6)=   0.000000

     crystal axes: (cart. coord. in units of alat)
               a(1) = (  -0.500000   0.000000   0.500000 )  
               a(2) = (   0.000000   0.500000   0.500000 )  
               a(3) = (  -0.500000   0.500000   0.000000 )  

     reciprocal axes: (cart. coord. in units 2 pi/alat)
               b(1) = ( -1.000000 -1.000000  1.000000 )  
               b(2) = (  1.000000  1.000000  1.000000 )  
               b(3) = ( -1.000000  1.000000 -1.000000 )  


     PseudoPot. # 1 for Al read from file:
     /Users/zhy/Aluminum-from-First-Principles/Al.pbe-n-van.UPF
     MD5 check sum: cbc97ad259b400557db688b98a6ada97
     Pseudo is Ultrasoft + core correction, Zval =  3.0
     Generated by new atomic code, or converted to UPF format
     Using radial grid of  893 points,  2 beta functions with: 
                l(1) =   0
                l(2) =   1
     Q(r) pseudized with  8 coefficients,  rinner =    0.900   0.900   0.900


     atomic species   valence    mass     pseudopotential
     Al                3.00    26.98200     Al( 1.00)

     48 Sym. Ops., with inversion, found



   Cartesian axes

     site n.     atom                  positions (alat units)
         1        Al     tau(   1) = (   0.0000000   0.0000000   0.0000000  )

     number of k points=    29  Methfessel-Paxton smearing, width (Ry)=  0.0500
                       cart. coord. in units 2pi/alat
        k(    1) = (   0.0000000   0.0000000   0.0000000), wk =   0.0039062
        k(    2) = (  -0.1250000   0.1250000  -0.1250000), wk =   0.0312500
        k(    3) = (  -0.2500000   0.2500000  -0.2500000), wk =   0.0312500
        k(    4) = (  -0.3750000   0.3750000  -0.3750000), wk =   0.0312500
        k(    5) = (   0.5000000  -0.5000000   0.5000000), wk =   0.0156250
        k(    6) = (   0.0000000   0.2500000   0.0000000), wk =   0.0234375
        k(    7) = (  -0.1250000   0.3750000  -0.1250000), wk =   0.0937500
        k(    8) = (  -0.2500000   0.5000000  -0.2500000), wk =   0.0937500
        k(    9) = (   0.6250000  -0.3750000   0.6250000), wk =   0.0937500
        k(   10) = (   0.5000000  -0.2500000   0.5000000), wk =   0.0937500
        k(   11) = (   0.3750000  -0.1250000   0.3750000), wk =   0.0937500
        k(   12) = (   0.2500000   0.0000000   0.2500000), wk =   0.0468750
        k(   13) = (   0.0000000   0.5000000   0.0000000), wk =   0.0234375
        k(   14) = (  -0.1250000   0.6250000  -0.1250000), wk =   0.0937500
        k(   15) = (   0.7500000  -0.2500000   0.7500000), wk =   0.0937500
        k(   16) = (   0.6250000  -0.1250000   0.6250000), wk =   0.0937500
        k(   17) = (   0.5000000   0.0000000   0.5000000), wk =   0.0468750
        k(   18) = (   0.0000000   0.7500000   0.0000000), wk =   0.0234375
        k(   19) = (   0.8750000  -0.1250000   0.8750000), wk =   0.0937500
        k(   20) = (   0.7500000   0.0000000   0.7500000), wk =   0.0468750
        k(   21) = (   0.0000000  -1.0000000   0.0000000), wk =   0.0117188
        k(   22) = (  -0.2500000   0.5000000   0.0000000), wk =   0.0937500
        k(   23) = (   0.6250000  -0.3750000   0.8750000), wk =   0.1875000
        k(   24) = (   0.5000000  -0.2500000   0.7500000), wk =   0.0937500
        k(   25) = (   0.7500000  -0.2500000   1.0000000), wk =   0.0937500
        k(   26) = (   0.6250000  -0.1250000   0.8750000), wk =   0.1875000
        k(   27) = (   0.5000000   0.0000000   0.7500000), wk =   0.0937500
        k(   28) = (  -0.2500000  -1.0000000   0.0000000), wk =   0.0468750
        k(   29) = (  -0.5000000  -1.0000000   0.0000000), wk =   0.0234375

     Dense  grid:    20875 G-vectors     FFT dimensions: (  40,  40,  40)

     Smooth grid:     7391 G-vectors     FFT dimensions: (  27,  27,  27)

     Estimated max dynamical RAM per process >      11.74 MB

     Estimated total dynamical RAM >      23.49 MB

     Initial potential from superposition of free atoms

     starting charge       2.9975, renormalised to       3.0000
     Starting wfcs are    4 randomized atomic wfcs +    2 random wfcs

     total cpu time spent up to now is        0.3 secs

     Self-consistent Calculation

     iteration #  1     ecut=    45.00 Ry     beta= 0.70
     Davidson diagonalization with overlap
     ethr =  1.00E-02,  avg # of iterations =  5.2

     Threshold (ethr) on eigenvalues was too large:
     Diagonalizing with lowered threshold

     Davidson diagonalization with overlap
     ethr =  1.78E-04,  avg # of iterations =  3.6

     total cpu time spent up to now is        0.5 secs

     total energy              =     -12.41831551 Ry
     estimated scf accuracy    <       0.00517794 Ry

     iteration #  2     ecut=    45.00 Ry     beta= 0.70
     Davidson diagonalization with overlap
     ethr =  1.73E-04,  avg # of iterations =  1.0

     total cpu time spent up to now is        0.6 secs

     total energy              =     -12.41844171 Ry
     estimated scf accuracy    <       0.00024173 Ry

     iteration #  3     ecut=    45.00 Ry     beta= 0.70
     Davidson diagonalization with overlap
     ethr =  8.06E-06,  avg # of iterations =  3.2

     total cpu time spent up to now is        0.7 secs

     total energy              =     -12.41847670 Ry
     estimated scf accuracy    <       0.00000113 Ry

     iteration #  4     ecut=    45.00 Ry     beta= 0.70
     Davidson diagonalization with overlap
     ethr =  3.77E-08,  avg # of iterations =  3.0

     total cpu time spent up to now is        0.8 secs

     total energy              =     -12.41847805 Ry
     estimated scf accuracy    <       0.00000006 Ry

     iteration #  5     ecut=    45.00 Ry     beta= 0.70
     Davidson diagonalization with overlap
     ethr =  2.02E-09,  avg # of iterations =  1.4

     total cpu time spent up to now is        0.8 secs

     End of self-consistent calculation

          k = 0.0000 0.0000 0.0000 (   941 PWs)   bands (ev):

    -4.4984  12.4144  12.4144  12.4144  13.9173  13.9173

          k =-0.1250 0.1250-0.1250 (   926 PWs)   bands (ev):

    -4.1953   9.6780  11.7862  11.7862  14.1596  14.8341

          k =-0.2500 0.2500-0.2500 (   932 PWs)   bands (ev):

    -3.2909   6.1687  11.1473  11.1473  13.7951  14.7219

          k =-0.3750 0.3750-0.3750 (   926 PWs)   bands (ev):

    -1.8078   3.0458  10.8707  10.8707  13.6060  13.6199

          k = 0.5000-0.5000 0.5000 (   912 PWs)   bands (ev):

    -0.1823   0.8661  10.8268  10.8268  13.1415  13.6175

          k = 0.0000 0.2500 0.0000 (   929 PWs)   bands (ev):

    -4.0943  10.6263  10.6263  11.3013  12.2494  15.2431

          k =-0.1250 0.3750-0.1250 (   930 PWs)   bands (ev):

    -3.3900   7.5320   9.8404  10.6142  12.5089  14.1488

          k =-0.2500 0.5000-0.2500 (   916 PWs)   bands (ev):

    -2.0965   4.2774   9.5514   9.6802  11.8324  15.4380

          k = 0.6250-0.3750 0.6250 (   926 PWs)   bands (ev):

    -0.3117   1.5772   8.8046   9.7656  11.8367  14.7285

          k = 0.5000-0.2500 0.5000 (   925 PWs)   bands (ev):

    -0.9369   2.3872   8.2729  10.4410  12.5680  14.2438

          k = 0.3750-0.1250 0.3750 (   930 PWs)   bands (ev):

    -2.5919   5.3194   8.2264  11.4401  13.8659  14.4208

          k = 0.2500 0.0000 0.2500 (   923 PWs)   bands (ev):

    -3.6916   8.6977   8.7066  12.3210  14.6991  14.9220

          k = 0.0000 0.5000 0.0000 (   950 PWs)   bands (ev):

    -2.8875   8.7759   8.8847   8.8847  10.3582  11.6074

          k =-0.1250 0.6250-0.1250 (   924 PWs)   bands (ev):

    -1.7920   5.9661   7.4660   8.4347  10.3217  12.4589

          k = 0.7500-0.2500 0.7500 (   932 PWs)   bands (ev):

    -0.1434   3.1216   6.1291   8.5116  10.3561  15.2087

          k = 0.6250-0.1250 0.6250 (   935 PWs)   bands (ev):

     0.4676   2.3436   5.3034   9.1082  10.9972  16.7910

          k = 0.5000 0.0000 0.5000 (   919 PWs)   bands (ev):

    -1.3074   4.9767   5.0806  10.1781  12.2128  16.3297

          k = 0.0000 0.7500 0.0000 (   930 PWs)   bands (ev):

    -0.8972   5.2114   7.8118   7.8118   9.1743   9.9595

          k = 0.8750-0.1250 0.8750 (   938 PWs)   bands (ev):

     0.5661   3.5940   5.4698   7.7190   9.4301  11.6983

          k = 0.7500 0.0000 0.7500 (   937 PWs)   bands (ev):

     2.0073   2.6784   3.3827   8.1582   9.9280  14.9223

          k = 0.0000-1.0000 0.0000 (   934 PWs)   bands (ev):

     1.7676   1.9077   7.4514   7.4514   8.7757   9.4987

          k =-0.2500 0.5000 0.0000 (   934 PWs)   bands (ev):

    -2.4900   6.8589   6.8686   9.7859  13.0921  13.4120

          k = 0.6250-0.3750 0.8750 (   928 PWs)   bands (ev):

    -1.0141   3.7960   6.7078   8.4256  13.0494  14.5537

          k = 0.5000-0.2500 0.7500 (   938 PWs)   bands (ev):

     0.6105   1.6273   6.8402   7.7599  13.1437  14.0506

          k = 0.7500-0.2500 1.0000 (   932 PWs)   bands (ev):

    -0.5119   5.1869   5.7266   6.4989  11.9906  12.2784

          k = 0.6250-0.1250 0.8750 (   926 PWs)   bands (ev):

     1.2548   3.0170   4.5488   6.2675  12.3839  15.0843

          k = 0.5000 0.0000 0.7500 (   930 PWs)   bands (ev):

     0.6115   3.8303   3.9433   7.0535  13.1320  16.1353

          k =-0.2500-1.0000 0.0000 (   930 PWs)   bands (ev):

     2.0799   2.2933   5.3470   5.7395  11.6169  11.9099

          k =-0.5000-1.0000 0.0000 (   932 PWs)   bands (ev):

     2.5776   3.4466   3.4466   4.5407  14.7968  15.6892

     the Fermi energy is     3.6006 ev

!    total energy              =     -12.41847805 Ry
     estimated scf accuracy    <          1.2E-09 Ry
     smearing contrib. (-TS)   =      -0.00100855 Ry
     internal energy E=F+TS    =     -12.41746949 Ry

     The total energy is F=E-TS. E is the sum of the following terms:
     one-electron contribution =       1.96139744 Ry
     hartree contribution      =       0.02524056 Ry
     xc contribution           =      -9.81924542 Ry
     ewald contribution        =      -4.58486207 Ry

     convergence has been achieved in   5 iterations

     Forces acting on atoms (cartesian axes, Ry/au):

     atom    1 type  1   force =     0.00000000    0.00000000    0.00000000

     Total force =     0.000000     Total SCF correction =     0.000000


     Computing stress (Cartesian axis) and pressure

          total   stress  (Ry/bohr**3)                   (kbar)     P=     -114.61
  -0.00077911   0.00000000   0.00000000         -114.61        0.00        0.00
   0.00000000  -0.00077911  -0.00000000            0.00     -114.61       -0.00
   0.00000000  -0.00000000  -0.00077911            0.00       -0.00     -114.61


     Writing all to output data dir /Users/zhy/Aluminum-from-First-Principles/convergence-runs/cutoff-kmesh/ecut-045.0-ry_k-08x08x08_degauss-0.050-ry/qe-out/aluminum_ecut-045p0-ry_k-08x08x08_degauss-0p050-ry.save/ :
     XML data file, charge density, pseudopotentials, collected wavefunctions

     init_run     :      0.28s CPU      0.28s WALL (       1 calls)
     electrons    :      0.53s CPU      0.55s WALL (       1 calls)
     forces       :      0.01s CPU      0.01s WALL (       1 calls)
     stress       :      0.03s CPU      0.03s WALL (       1 calls)

     Called by init_run:
     wfcinit      :      0.03s CPU      0.03s WALL (       1 calls)
     potinit      :      0.06s CPU      0.06s WALL (       1 calls)
     hinit0       :      0.16s CPU      0.16s WALL (       1 calls)

     Called by electrons:
     c_bands      :      0.40s CPU      0.41s WALL (       6 calls)
     sum_band     :      0.09s CPU      0.09s WALL (       6 calls)
     v_of_rho     :      0.04s CPU      0.04s WALL (       6 calls)
     newd         :      0.01s CPU      0.01s WALL (       6 calls)
     mix_rho      :      0.00s CPU      0.00s WALL (       6 calls)

     Called by c_bands:
     init_us_2    :      0.01s CPU      0.01s WALL (     435 calls)
     cegterg      :      0.40s CPU      0.41s WALL (     174 calls)

     Called by *egterg:
     cdiaghg      :      0.01s CPU      0.01s WALL (     651 calls)
     h_psi        :      0.37s CPU      0.38s WALL (     709 calls)
     s_psi        :      0.00s CPU      0.00s WALL (     709 calls)
     g_psi        :      0.00s CPU      0.00s WALL (     506 calls)

     Called by h_psi:
     h_psi:calbec :      0.00s CPU      0.00s WALL (     709 calls)
     vloc_psi     :      0.37s CPU      0.37s WALL (     709 calls)
     add_vuspsi   :      0.00s CPU      0.00s WALL (     709 calls)

     General routines
     calbec       :      0.01s CPU      0.01s WALL (    1376 calls)
     fft          :      0.15s CPU      0.15s WALL (     102 calls)
     ffts         :      0.05s CPU      0.05s WALL (      12 calls)
     fftw         :      0.40s CPU      0.40s WALL (    6900 calls)
     interpolate  :      0.05s CPU      0.05s WALL (       6 calls)

     Parallel routines

     PWSCF        :      0.87s CPU      0.90s WALL


   This run was terminated on:   1:12:47  23Sep2026            

=------------------------------------------------------------------------------=
   JOB DONE.
=------------------------------------------------------------------------------=
Note: The following floating-point exceptions are signalling: IEEE_UNDERFLOW_FLAG
Note: The following floating-point exceptions are signalling: IEEE_INVALID_FLAG IEEE_DIVIDE_BY_ZERO IEEE_UNDERFLOW_FLAG
