
     Program PWSCF v.7.6 starts on 23Sep2026 at  1:12:58 

     This program is part of the open-source Quantum ESPRESSO suite
     for quantum simulation of materials; please cite
         "P. Giannozzi et al., J. Phys.:Condens. Matter 21 395502 (2009);
         "P. Giannozzi et al., J. Phys.:Condens. Matter 29 465901 (2017);
         "P. Giannozzi et al., J. Chem. Phys. 152 154105 (2020);
          URL http://www.quantum-espresso.org", 
     in publications or presentations arising from this work. More details at
     http://www.quantum-espresso.org/quote

     Parallel version (MPI), running on     2 processors

     MPI processes distributed on     1 nodes
     0 MiB available memory on the printing compute node when the environment starts

     Reading input from Al.scf.inp

     Current dimensions of program PWSCF are:
     Max number of different atomic species (ntypx) = 10
     Max number of k-points (npk) =  40000
     Max angular momentum in pseudopotentials (lmaxx) =  4

     R & G space division:  proc/nbgrp/npool/nimage =       2
     Subspace diagonalization in iterative solution of the eigenvalue problem:
     a serial algorithm will be used


     Parallelization info
     --------------------
     sticks:   dense  smooth     PW     G-vecs:    dense   smooth      PW
     Min         561     279     84                12346     4327     735
     Max         562     280     85                12347     4330     736
     Sum        1123     559    169                24693     8657    1471

     Using Slab Decomposition



     bravais-lattice index     =            2
     lattice parameter (alat)  =       9.0000  a.u.
     unit-cell volume          =     182.2500 (a.u.)^3
     number of atoms/cell      =            1
     number of atomic types    =            1
     number of electrons       =         3.00
     number of Kohn-Sham states=            6
     kinetic-energy cutoff     =      50.0000  Ry
     charge density cutoff     =     400.0000  Ry
     scf convergence threshold =      1.0E-08
     mixing beta               =       0.7000
     number of iterations used =            8  plain     mixing
     Exchange-correlation= SLA  PW   PBE  PBE
                           (   1   4   3   4   0   0   0)

     celldm(1)=   9.000000  celldm(2)=   0.000000  celldm(3)=   0.000000
     celldm(4)=   0.000000  celldm(5)=   0.000000  celldm(6)=   0.000000

     crystal axes: (cart. coord. in units of alat)
               a(1) = (  -0.500000   0.000000   0.500000 )  
               a(2) = (   0.000000   0.500000   0.500000 )  
               a(3) = (  -0.500000   0.500000   0.000000 )  

     reciprocal axes: (cart. coord. in units 2 pi/alat)
               b(1) = ( -1.000000 -1.000000  1.000000 )  
               b(2) = (  1.000000  1.000000  1.000000 )  
               b(3) = ( -1.000000  1.000000 -1.000000 )  


     PseudoPot. # 1 for Al read from file:
     /Users/zhy/Aluminum-from-First-Principles/Al.pbe-n-van.UPF
     MD5 check sum: cbc97ad259b400557db688b98a6ada97
     Pseudo is Ultrasoft + core correction, Zval =  3.0
     Generated by new atomic code, or converted to UPF format
     Using radial grid of  893 points,  2 beta functions with: 
                l(1) =   0
                l(2) =   1
     Q(r) pseudized with  8 coefficients,  rinner =    0.900   0.900   0.900


     atomic species   valence    mass     pseudopotential
     Al                3.00    26.98200     Al( 1.00)

     48 Sym. Ops., with inversion, found



   Cartesian axes

     site n.     atom                  positions (alat units)
         1        Al     tau(   1) = (   0.0000000   0.0000000   0.0000000  )

     number of k points=    72  Methfessel-Paxton smearing, width (Ry)=  0.0500
                       cart. coord. in units 2pi/alat
        k(    1) = (   0.0000000   0.0000000   0.0000000), wk =   0.0011574
        k(    2) = (  -0.0833333   0.0833333  -0.0833333), wk =   0.0092593
        k(    3) = (  -0.1666667   0.1666667  -0.1666667), wk =   0.0092593
        k(    4) = (  -0.2500000   0.2500000  -0.2500000), wk =   0.0092593
        k(    5) = (  -0.3333333   0.3333333  -0.3333333), wk =   0.0092593
        k(    6) = (  -0.4166667   0.4166667  -0.4166667), wk =   0.0092593
        k(    7) = (   0.5000000  -0.5000000   0.5000000), wk =   0.0046296
        k(    8) = (   0.0000000   0.1666667   0.0000000), wk =   0.0069444
        k(    9) = (  -0.0833333   0.2500000  -0.0833333), wk =   0.0277778
        k(   10) = (  -0.1666667   0.3333333  -0.1666667), wk =   0.0277778
        k(   11) = (  -0.2500000   0.4166667  -0.2500000), wk =   0.0277778
        k(   12) = (  -0.3333333   0.5000000  -0.3333333), wk =   0.0277778
        k(   13) = (   0.5833333  -0.4166667   0.5833333), wk =   0.0277778
        k(   14) = (   0.5000000  -0.3333333   0.5000000), wk =   0.0277778
        k(   15) = (   0.4166667  -0.2500000   0.4166667), wk =   0.0277778
        k(   16) = (   0.3333333  -0.1666667   0.3333333), wk =   0.0277778
        k(   17) = (   0.2500000  -0.0833333   0.2500000), wk =   0.0277778
        k(   18) = (   0.1666667  -0.0000000   0.1666667), wk =   0.0138889
        k(   19) = (   0.0000000   0.3333333   0.0000000), wk =   0.0069444
        k(   20) = (  -0.0833333   0.4166667  -0.0833333), wk =   0.0277778
        k(   21) = (  -0.1666667   0.5000000  -0.1666667), wk =   0.0277778
        k(   22) = (  -0.2500000   0.5833333  -0.2500000), wk =   0.0277778
        k(   23) = (   0.6666667  -0.3333333   0.6666667), wk =   0.0277778
        k(   24) = (   0.5833333  -0.2500000   0.5833333), wk =   0.0277778
        k(   25) = (   0.5000000  -0.1666667   0.5000000), wk =   0.0277778
        k(   26) = (   0.4166667  -0.0833333   0.4166667), wk =   0.0277778
        k(   27) = (   0.3333333   0.0000000   0.3333333), wk =   0.0138889
        k(   28) = (   0.0000000   0.5000000   0.0000000), wk =   0.0069444
        k(   29) = (  -0.0833333   0.5833333  -0.0833333), wk =   0.0277778
        k(   30) = (  -0.1666667   0.6666667  -0.1666667), wk =   0.0277778
        k(   31) = (   0.7500000  -0.2500000   0.7500000), wk =   0.0277778
        k(   32) = (   0.6666667  -0.1666667   0.6666667), wk =   0.0277778
        k(   33) = (   0.5833333  -0.0833333   0.5833333), wk =   0.0277778
        k(   34) = (   0.5000000   0.0000000   0.5000000), wk =   0.0138889
        k(   35) = (   0.0000000   0.6666667   0.0000000), wk =   0.0069444
        k(   36) = (  -0.0833333   0.7500000  -0.0833333), wk =   0.0277778
        k(   37) = (   0.8333333  -0.1666667   0.8333333), wk =   0.0277778
        k(   38) = (   0.7500000  -0.0833333   0.7500000), wk =   0.0277778
        k(   39) = (   0.6666667   0.0000000   0.6666667), wk =   0.0138889
        k(   40) = (   0.0000000   0.8333333   0.0000000), wk =   0.0069444
        k(   41) = (   0.9166667  -0.0833333   0.9166667), wk =   0.0277778
        k(   42) = (   0.8333333   0.0000000   0.8333333), wk =   0.0138889
        k(   43) = (   0.0000000  -1.0000000   0.0000000), wk =   0.0034722
        k(   44) = (  -0.1666667   0.3333333   0.0000000), wk =   0.0277778
        k(   45) = (  -0.2500000   0.4166667  -0.0833333), wk =   0.0555556
        k(   46) = (  -0.3333333   0.5000000  -0.1666667), wk =   0.0555556
        k(   47) = (   0.5833333  -0.4166667   0.7500000), wk =   0.0555556
        k(   48) = (   0.5000000  -0.3333333   0.6666667), wk =   0.0277778
        k(   49) = (  -0.1666667   0.5000000   0.0000000), wk =   0.0277778
        k(   50) = (  -0.2500000   0.5833333  -0.0833333), wk =   0.0555556
        k(   51) = (   0.6666667  -0.3333333   0.8333333), wk =   0.0555556
        k(   52) = (   0.5833333  -0.2500000   0.7500000), wk =   0.0555556
        k(   53) = (   0.5000000  -0.1666667   0.6666667), wk =   0.0555556
        k(   54) = (   0.4166667  -0.0833333   0.5833333), wk =   0.0555556
        k(   55) = (   0.3333333   0.0000000   0.5000000), wk =   0.0277778
        k(   56) = (  -0.1666667   0.6666667  -0.0000000), wk =   0.0277778
        k(   57) = (   0.7500000  -0.2500000   0.9166667), wk =   0.0555556
        k(   58) = (   0.6666667  -0.1666667   0.8333333), wk =   0.0555556
        k(   59) = (   0.5833333  -0.0833333   0.7500000), wk =   0.0555556
        k(   60) = (   0.5000000   0.0000000   0.6666667), wk =   0.0277778
        k(   61) = (   0.8333333  -0.1666667   1.0000000), wk =   0.0277778
        k(   62) = (   0.7500000  -0.0833333   0.9166667), wk =   0.0555556
        k(   63) = (   0.6666667   0.0000000   0.8333333), wk =   0.0277778
        k(   64) = (  -0.1666667  -1.0000000   0.0000000), wk =   0.0138889
        k(   65) = (   0.6666667  -0.3333333   1.0000000), wk =   0.0277778
        k(   66) = (   0.5833333  -0.2500000   0.9166667), wk =   0.0555556
        k(   67) = (   0.5000000  -0.1666667   0.8333333), wk =   0.0277778
        k(   68) = (   0.6666667  -0.1666667   1.0000000), wk =   0.0277778
        k(   69) = (   0.5833333  -0.0833333   0.9166667), wk =   0.0555556
        k(   70) = (   0.5000000   0.0000000   0.8333333), wk =   0.0277778
        k(   71) = (  -0.3333333  -1.0000000   0.0000000), wk =   0.0138889
        k(   72) = (  -0.5000000  -1.0000000   0.0000000), wk =   0.0069444

     Dense  grid:    24693 G-vectors     FFT dimensions: (  45,  45,  45)

     Smooth grid:     8657 G-vectors     FFT dimensions: (  30,  30,  30)

     Estimated max dynamical RAM per process >      16.60 MB

     Estimated total dynamical RAM >      33.20 MB

     Initial potential from superposition of free atoms

     starting charge       2.9975, renormalised to       3.0000
     Starting wfcs are    4 randomized atomic wfcs +    2 random wfcs

     total cpu time spent up to now is        0.3 secs

     Self-consistent Calculation

     iteration #  1     ecut=    50.00 Ry     beta= 0.70
     Davidson diagonalization with overlap
     ethr =  1.00E-02,  avg # of iterations =  5.3

     Threshold (ethr) on eigenvalues was too large:
     Diagonalizing with lowered threshold

     Davidson diagonalization with overlap
     ethr =  1.80E-04,  avg # of iterations =  3.2

     total cpu time spent up to now is        0.9 secs

     total energy              =     -12.41943757 Ry
     estimated scf accuracy    <       0.00521405 Ry

     iteration #  2     ecut=    50.00 Ry     beta= 0.70
     Davidson diagonalization with overlap
     ethr =  1.74E-04,  avg # of iterations =  1.0

     total cpu time spent up to now is        1.1 secs

     total energy              =     -12.41956676 Ry
     estimated scf accuracy    <       0.00024358 Ry

     iteration #  3     ecut=    50.00 Ry     beta= 0.70
     Davidson diagonalization with overlap
     c_bands:  1 eigenvalues not converged
     ethr =  8.12E-06,  avg # of iterations =  3.8

     total cpu time spent up to now is        1.4 secs

     total energy              =     -12.41960183 Ry
     estimated scf accuracy    <       0.00000112 Ry

     iteration #  4     ecut=    50.00 Ry     beta= 0.70
     Davidson diagonalization with overlap
     ethr =  3.75E-08,  avg # of iterations =  3.3

     total cpu time spent up to now is        1.7 secs

     total energy              =     -12.41960333 Ry
     estimated scf accuracy    <       0.00000006 Ry

     iteration #  5     ecut=    50.00 Ry     beta= 0.70
     Davidson diagonalization with overlap
     ethr =  2.15E-09,  avg # of iterations =  1.4

     total cpu time spent up to now is        1.9 secs

     End of self-consistent calculation

          k = 0.0000 0.0000 0.0000 (  1067 PWs)   bands (ev):

    -4.4991  12.4126  12.4126  12.4126  13.9168  13.9169

          k =-0.0833 0.0833-0.0833 (  1085 PWs)   bands (ev):

    -4.3643  10.8461  12.0557  12.0557  14.2070  14.4262

          k =-0.1667 0.1667-0.1667 (  1080 PWs)   bands (ev):

    -3.9608   8.4845  11.5335  11.5335  14.0407  15.1093

          k =-0.2500 0.2500-0.2500 (  1083 PWs)   bands (ev):

    -3.2916   6.1677  11.1458  11.1458  13.7938  14.7211

          k =-0.3333 0.3333-0.3333 (  1089 PWs)   bands (ev):

    -2.3639   4.0289  10.9250  10.9251  13.6475  13.9345

          k =-0.4167 0.4167-0.4167 (  1095 PWs)   bands (ev):

    -1.2020   2.1308  10.8400  10.8400  13.3538  13.3538

          k = 0.5000-0.5000 0.5000 (  1068 PWs)   bands (ev):

    -0.1832   0.8654  10.8253  10.8253  13.1410  13.6154

          k = 0.0000 0.1667 0.0000 (  1082 PWs)   bands (ev):

    -4.3194  11.3228  11.3228  11.8678  12.9697  15.2293

          k =-0.0833 0.2500-0.0833 (  1081 PWs)   bands (ev):

    -4.0054   9.3585  10.6909  11.5690  13.1662  15.4079

          k =-0.1667 0.3333-0.1667 (  1085 PWs)   bands (ev):

    -3.4246   7.0263  10.2547  11.0659  13.2965  14.9349

          k =-0.2500 0.4167-0.2500 (  1086 PWs)   bands (ev):

    -2.5823   4.8274  10.0349  10.5955  12.7101  14.8515

          k =-0.3333 0.5000-0.3333 (  1097 PWs)   bands (ev):

    -1.4933   2.8441  10.0317  10.1327  12.3587  14.5346

          k = 0.5833-0.4167 0.5833 (  1088 PWs)   bands (ev):

    -0.2712   1.2123   9.7010  10.2329  12.4124  13.9676

          k = 0.5000-0.3333 0.5000 (  1086 PWs)   bands (ev):

    -0.6648   1.6881   9.3861  10.6085  12.8170  13.6773

          k = 0.4167-0.2500 0.4167 (  1089 PWs)   bands (ev):

    -1.8819   3.4781   9.2522  11.1019  13.5030  13.7194

          k = 0.3333-0.1667 0.3333 (  1093 PWs)   bands (ev):

    -2.8918   5.5405   9.3297  11.6352  14.1246  14.3401

          k = 0.2500-0.0833 0.2500 (  1081 PWs)   bands (ev):

    -3.6477   7.7986   9.6297  12.1436  14.6055  14.6179

          k = 0.1667-0.0000 0.1667 (  1079 PWs)   bands (ev):

    -4.1399  10.1120  10.1837  12.4509  14.2649  14.4934

          k = 0.0000 0.3333 0.0000 (  1082 PWs)   bands (ev):

    -3.7813   9.9770   9.9770  10.6035  11.5537  13.8386

          k =-0.0833 0.4167-0.0833 (  1081 PWs)   bands (ev):

    -3.2899   8.0663   9.4682  10.0861  11.7044  13.0789

          k =-0.1667 0.5000-0.1667 (  1083 PWs)   bands (ev):

    -2.5353   5.8534   9.1845   9.3238  11.4023  14.0973

          k =-0.2500 0.5833-0.2500 (  1087 PWs)   bands (ev):

    -1.5272   3.8076   8.5479   9.1310  11.1788  15.5483

          k = 0.6667-0.3333 0.6667 (  1095 PWs)   bands (ev):

    -0.3117   2.0253   7.8834   9.3060  11.2870  15.5919

          k = 0.5833-0.2500 0.5833 (  1092 PWs)   bands (ev):

     0.0796   1.5537   7.4051   9.7016  11.6952  15.1385

          k = 0.5000-0.1667 0.5000 (  1095 PWs)   bands (ev):

    -1.1417   3.1832   7.1472  10.2987  12.3729  14.9342

          k = 0.4167-0.0833 0.4167 (  1088 PWs)   bands (ev):

    -2.2282   5.1583   7.1245  11.0521  13.2889  15.0050

          k = 0.3333 0.0000 0.3333 (  1077 PWs)   bands (ev):

    -3.0684   7.3204   7.3627  11.8286  14.3743  15.4739

          k = 0.0000 0.5000 0.0000 (  1094 PWs)   bands (ev):

    -2.8883   8.7742   8.8835   8.8835  10.3578  11.6067

          k =-0.0833 0.5833-0.0833 (  1079 PWs)   bands (ev):

    -2.2227   6.9770   8.0027   8.5252  10.4036  11.7403

          k =-0.1667 0.6667-0.1667 (  1084 PWs)   bands (ev):

    -1.3001   4.9694   6.9678   8.4005  10.2677  13.3158

          k = 0.7500-0.2500 0.7500 (  1088 PWs)   bands (ev):

    -0.1443   3.1207   6.1281   8.5105  10.3554  15.2074

          k = 0.6667-0.1667 0.6667 (  1093 PWs)   bands (ev):

     0.8700   1.8756   5.5173   8.8519  10.7163  17.0010

          k = 0.5833-0.0833 0.5833 (  1095 PWs)   bands (ev):

    -0.1554   3.1487   5.1494   9.4156  11.3409  16.6444

          k = 0.5000 0.0000 0.5000 (  1097 PWs)   bands (ev):

    -1.3082   4.9759   5.0794  10.1767  12.2120  16.3283

          k = 0.0000 0.6667 0.0000 (  1078 PWs)   bands (ev):

    -1.6466   6.4251   8.0902   8.0902   9.4828  10.3395

          k =-0.0833 0.7500-0.0833 (  1082 PWs)   bands (ev):

    -0.8121   5.2274   6.6258   7.8891   9.6099  10.9971

          k = 0.8333-0.1667 0.8333 (  1086 PWs)   bands (ev):

     0.2663   4.0487   4.9678   7.9249   9.6760  12.8384

          k = 0.7500-0.0833 0.7500 (  1096 PWs)   bands (ev):

     1.4744   2.7613   3.9472   8.1964   9.9741  14.9546

          k = 0.6667 0.0000 0.6667 (  1113 PWs)   bands (ev):

     1.0292   3.2757   3.4953   8.6982  10.5318  17.1230

          k = 0.0000 0.8333 0.0000 (  1082 PWs)   bands (ev):

    -0.0666   4.0287   7.6106   7.6106   8.9527   9.6992

          k = 0.9167-0.0833 0.9167 (  1090 PWs)   bands (ev):

     0.9263   2.9742   6.2274   7.5693   9.2319  10.6421

          k = 0.8333 0.0000 0.8333 (  1103 PWs)   bands (ev):

     2.0209   2.2497   4.5461   7.7656   9.4860  12.6781

          k = 0.0000-1.0000 0.0000 (  1106 PWs)   bands (ev):

     1.7665   1.9069   7.4503   7.4503   8.7754   9.4976

          k =-0.1667 0.3333 0.0000 (  1080 PWs)   bands (ev):

    -3.6027   8.7436   8.7712  11.5712  13.0590  14.3342

          k =-0.2500 0.4167-0.0833 (  1087 PWs)   bands (ev):

    -2.9349   6.4837   8.3768  10.9237  13.1093  14.5682

          k =-0.3333 0.5000-0.1667 (  1086 PWs)   bands (ev):

    -2.0091   4.3604   8.2201  10.1287  12.8332  14.5582

          k = 0.5833-0.4167 0.7500 (  1093 PWs)   bands (ev):

    -0.8493   2.4699   8.2601   9.4632  12.7926  13.9353

          k = 0.5000-0.3333 0.6667 (  1088 PWs)   bands (ev):

     0.1705   1.2050   8.3499   9.1578  12.8532  13.6367

          k =-0.1667 0.5000 0.0000 (  1076 PWs)   bands (ev):

    -2.7114   7.5584   7.6258   9.5327  11.9316  12.5550

          k =-0.2500 0.5833-0.0833 (  1082 PWs)   bands (ev):

    -1.8725   5.4616   7.3133   8.5999  11.9564  13.7272

          k = 0.6667-0.3333 0.8333 (  1090 PWs)   bands (ev):

    -0.7878   3.5072   7.0871   7.9674  11.9596  15.1891

          k = 0.5833-0.2500 0.7500 (  1093 PWs)   bands (ev):

     0.4320   1.8870   6.6732   7.9768  12.2050  15.0250

          k = 0.5000-0.1667 0.6667 (  1092 PWs)   bands (ev):

     0.0349   2.3672   6.2986   8.4208  12.6776  14.6839

          k = 0.4167-0.0833 0.5833 (  1087 PWs)   bands (ev):

    -1.1777   4.1450   6.1239   9.1337  13.3224  14.5755

          k = 0.3333 0.0000 0.5000 (  1086 PWs)   bands (ev):

    -2.1827   6.1535   6.2110  10.0418  13.9377  14.3387

          k =-0.1667 0.6667-0.0000 (  1079 PWs)   bands (ev):

    -1.4726   6.2574   6.7959   7.4689  11.1006  11.5581

          k = 0.7500-0.2500 0.9167 (  1081 PWs)   bands (ev):

    -0.4711   4.6730   5.8032   7.0222  11.2546  13.1110

          k = 0.6667-0.1667 0.8333 (  1091 PWs)   bands (ev):

     0.7372   2.9882   5.0230   7.1434  11.4537  15.0876

          k = 0.5833-0.0833 0.7500 (  1098 PWs)   bands (ev):

     1.1086   2.5617   4.4811   7.5643  11.8896  16.4198

          k = 0.5000 0.0000 0.6667 (  1092 PWs)   bands (ev):

    -0.1033   4.1274   4.2426   8.2386  12.5481  16.3175

          k = 0.8333-0.1667 1.0000 (  1086 PWs)   bands (ev):

     0.1019   4.1461   6.2948   6.6296  10.5957  11.0146

          k = 0.7500-0.0833 0.9167 (  1094 PWs)   bands (ev):

     1.2448   3.2206   4.6963   6.5907  10.9107  12.7957

          k = 0.6667 0.0000 0.8333 (  1100 PWs)   bands (ev):

     2.0882   2.7631   3.4521   6.9490  11.2856  14.9777

          k =-0.1667-1.0000 0.0000 (  1096 PWs)   bands (ev):

     1.9099   2.0783   6.1272   6.4201  10.4266  10.8380

          k = 0.6667-0.3333 1.0000 (  1080 PWs)   bands (ev):

    -0.9539   5.2992   5.3109   7.5538  13.5473  13.5714

          k = 0.5833-0.2500 0.9167 (  1090 PWs)   bands (ev):

     0.1969   3.4614   5.3520   6.7582  13.5779  14.7246

          k = 0.5000-0.1667 0.8333 (  1090 PWs)   bands (ev):

     1.2156   2.2074   5.4453   6.4137  13.6396  14.6043

          k = 0.6667-0.1667 1.0000 (  1080 PWs)   bands (ev):

     0.5994   4.2723   4.8030   5.6282  13.0615  13.1888

          k = 0.5833-0.0833 0.9167 (  1092 PWs)   bands (ev):

     1.7991   3.1037   4.1272   5.4602  13.3735  15.1152

          k = 0.5000 0.0000 0.8333 (  1091 PWs)   bands (ev):

     1.3783   3.6164   3.7183   5.9342  13.7904  15.8438

          k =-0.3333-1.0000 0.0000 (  1090 PWs)   bands (ev):

     2.2879   2.5921   4.6333   5.1440  12.8981  13.0488

          k =-0.5000-1.0000 0.0000 (  1084 PWs)   bands (ev):

     2.5763   3.4459   3.4459   4.5400  14.7952  15.6884

     the Fermi energy is     3.6004 ev

!    total energy              =     -12.41960333 Ry
     estimated scf accuracy    <          1.8E-09 Ry
     smearing contrib. (-TS)   =       0.00010167 Ry
     internal energy E=F+TS    =     -12.41970500 Ry

     The total energy is F=E-TS. E is the sum of the following terms:
     one-electron contribution =       1.95909622 Ry
     hartree contribution      =       0.02511305 Ry
     xc contribution           =      -9.81905220 Ry
     ewald contribution        =      -4.58486207 Ry

     convergence has been achieved in   5 iterations

     Forces acting on atoms (cartesian axes, Ry/au):

     atom    1 type  1   force =     0.00000000    0.00000000    0.00000000

     Total force =     0.000000     Total SCF correction =     0.000000


     Computing stress (Cartesian axis) and pressure

          total   stress  (Ry/bohr**3)                   (kbar)     P=     -116.40
  -0.00079125  -0.00000000   0.00000000         -116.40       -0.00        0.00
  -0.00000000  -0.00079125  -0.00000000           -0.00     -116.40       -0.00
   0.00000000  -0.00000000  -0.00079125            0.00       -0.00     -116.40


     Writing all to output data dir /Users/zhy/Aluminum-from-First-Principles/convergence-runs/cutoff-kmesh/ecut-050.0-ry_k-12x12x12_degauss-0.050-ry/qe-out/aluminum_ecut-050p0-ry_k-12x12x12_degauss-0p050-ry.save/ :
     XML data file, charge density, pseudopotentials, collected wavefunctions

     init_run     :      0.32s CPU      0.32s WALL (       1 calls)
     electrons    :      1.52s CPU      1.55s WALL (       1 calls)
     forces       :      0.02s CPU      0.02s WALL (       1 calls)
     stress       :      0.06s CPU      0.06s WALL (       1 calls)

     Called by init_run:
     wfcinit      :      0.08s CPU      0.08s WALL (       1 calls)
     potinit      :      0.09s CPU      0.09s WALL (       1 calls)
     hinit0       :      0.11s CPU      0.11s WALL (       1 calls)

     Called by electrons:
     c_bands      :      1.22s CPU      1.25s WALL (       6 calls)
     sum_band     :      0.24s CPU      0.24s WALL (       6 calls)
     v_of_rho     :      0.05s CPU      0.05s WALL (       6 calls)
     newd         :      0.01s CPU      0.01s WALL (       6 calls)
     mix_rho      :      0.00s CPU      0.00s WALL (       6 calls)

     Called by c_bands:
     init_us_2    :      0.03s CPU      0.03s WALL (    1080 calls)
     cegterg      :      1.20s CPU      1.23s WALL (     432 calls)

     Called by *egterg:
     cdiaghg      :      0.04s CPU      0.04s WALL (    1652 calls)
     h_psi        :      1.14s CPU      1.16s WALL (    1796 calls)
     s_psi        :      0.01s CPU      0.01s WALL (    1796 calls)
     g_psi        :      0.00s CPU      0.00s WALL (    1292 calls)

     Called by h_psi:
     h_psi:calbec :      0.01s CPU      0.01s WALL (    1796 calls)
     vloc_psi     :      1.12s CPU      1.14s WALL (    1796 calls)
     add_vuspsi   :      0.01s CPU      0.01s WALL (    1796 calls)

     General routines
     calbec       :      0.02s CPU      0.02s WALL (    3452 calls)
     fft          :      0.11s CPU      0.11s WALL (     102 calls)
     ffts         :      0.08s CPU      0.08s WALL (      12 calls)
     fftw         :      1.20s CPU      1.21s WALL (   17390 calls)
     interpolate  :      0.08s CPU      0.08s WALL (       6 calls)

     Parallel routines

     PWSCF        :      1.93s CPU      1.99s WALL


   This run was terminated on:   1:13: 0  23Sep2026            

=------------------------------------------------------------------------------=
   JOB DONE.
=------------------------------------------------------------------------------=
Note: The following floating-point exceptions are signalling: IEEE_INVALID_FLAG IEEE_DIVIDE_BY_ZERO IEEE_UNDERFLOW_FLAG
Note: The following floating-point exceptions are signalling: IEEE_UNDERFLOW_FLAG
