
     Program PWSCF v.7.6 starts on 22Sep2026 at 23:45:41 

     This program is part of the open-source Quantum ESPRESSO suite
     for quantum simulation of materials; please cite
         "P. Giannozzi et al., J. Phys.:Condens. Matter 21 395502 (2009);
         "P. Giannozzi et al., J. Phys.:Condens. Matter 29 465901 (2017);
         "P. Giannozzi et al., J. Chem. Phys. 152 154105 (2020);
          URL http://www.quantum-espresso.org", 
     in publications or presentations arising from this work. More details at
     http://www.quantum-espresso.org/quote

     Parallel version (MPI), running on     2 processors

     MPI processes distributed on     1 nodes
     0 MiB available memory on the printing compute node when the environment starts

     Reading input from Al.scf.inp

     Current dimensions of program PWSCF are:
     Max number of different atomic species (ntypx) = 10
     Max number of k-points (npk) =  40000
     Max angular momentum in pseudopotentials (lmaxx) =  4

     R & G space division:  proc/nbgrp/npool/nimage =       2
     Subspace diagonalization in iterative solution of the eigenvalue problem:
     a serial algorithm will be used


     Parallelization info
     --------------------
     sticks:   dense  smooth     PW     G-vecs:    dense   smooth      PW
     Min         444     219     75                 8785     3115     604
     Max         445     220     76                 8788     3116     607
     Sum         889     439    151                17573     6231    1211

     Using Slab Decomposition



     bravais-lattice index     =            2
     lattice parameter (alat)  =       9.0000  a.u.
     unit-cell volume          =     182.2500 (a.u.)^3
     number of atoms/cell      =            1
     number of atomic types    =            1
     number of electrons       =         3.00
     number of Kohn-Sham states=            6
     kinetic-energy cutoff     =      40.0000  Ry
     charge density cutoff     =     320.0000  Ry
     scf convergence threshold =      1.0E-08
     mixing beta               =       0.7000
     number of iterations used =            8  plain     mixing
     Exchange-correlation= SLA  PW   PBE  PBE
                           (   1   4   3   4   0   0   0)

     celldm(1)=   9.000000  celldm(2)=   0.000000  celldm(3)=   0.000000
     celldm(4)=   0.000000  celldm(5)=   0.000000  celldm(6)=   0.000000

     crystal axes: (cart. coord. in units of alat)
               a(1) = (  -0.500000   0.000000   0.500000 )  
               a(2) = (   0.000000   0.500000   0.500000 )  
               a(3) = (  -0.500000   0.500000   0.000000 )  

     reciprocal axes: (cart. coord. in units 2 pi/alat)
               b(1) = ( -1.000000 -1.000000  1.000000 )  
               b(2) = (  1.000000  1.000000  1.000000 )  
               b(3) = ( -1.000000  1.000000 -1.000000 )  


     PseudoPot. # 1 for Al read from file:
     /Users/zhy/Aluminum-from-First-Principles/Al.pbe-n-van.UPF
     MD5 check sum: cbc97ad259b400557db688b98a6ada97
     Pseudo is Ultrasoft + core correction, Zval =  3.0
     Generated by new atomic code, or converted to UPF format
     Using radial grid of  893 points,  2 beta functions with: 
                l(1) =   0
                l(2) =   1
     Q(r) pseudized with  8 coefficients,  rinner =    0.900   0.900   0.900


     atomic species   valence    mass     pseudopotential
     Al                3.00    26.98200     Al( 1.00)

     48 Sym. Ops., with inversion, found



   Cartesian axes

     site n.     atom                  positions (alat units)
         1        Al     tau(   1) = (   0.0000000   0.0000000   0.0000000  )

     number of k points=    72  Methfessel-Paxton smearing, width (Ry)=  0.0500
                       cart. coord. in units 2pi/alat
        k(    1) = (   0.0000000   0.0000000   0.0000000), wk =   0.0011574
        k(    2) = (  -0.0833333   0.0833333  -0.0833333), wk =   0.0092593
        k(    3) = (  -0.1666667   0.1666667  -0.1666667), wk =   0.0092593
        k(    4) = (  -0.2500000   0.2500000  -0.2500000), wk =   0.0092593
        k(    5) = (  -0.3333333   0.3333333  -0.3333333), wk =   0.0092593
        k(    6) = (  -0.4166667   0.4166667  -0.4166667), wk =   0.0092593
        k(    7) = (   0.5000000  -0.5000000   0.5000000), wk =   0.0046296
        k(    8) = (   0.0000000   0.1666667   0.0000000), wk =   0.0069444
        k(    9) = (  -0.0833333   0.2500000  -0.0833333), wk =   0.0277778
        k(   10) = (  -0.1666667   0.3333333  -0.1666667), wk =   0.0277778
        k(   11) = (  -0.2500000   0.4166667  -0.2500000), wk =   0.0277778
        k(   12) = (  -0.3333333   0.5000000  -0.3333333), wk =   0.0277778
        k(   13) = (   0.5833333  -0.4166667   0.5833333), wk =   0.0277778
        k(   14) = (   0.5000000  -0.3333333   0.5000000), wk =   0.0277778
        k(   15) = (   0.4166667  -0.2500000   0.4166667), wk =   0.0277778
        k(   16) = (   0.3333333  -0.1666667   0.3333333), wk =   0.0277778
        k(   17) = (   0.2500000  -0.0833333   0.2500000), wk =   0.0277778
        k(   18) = (   0.1666667  -0.0000000   0.1666667), wk =   0.0138889
        k(   19) = (   0.0000000   0.3333333   0.0000000), wk =   0.0069444
        k(   20) = (  -0.0833333   0.4166667  -0.0833333), wk =   0.0277778
        k(   21) = (  -0.1666667   0.5000000  -0.1666667), wk =   0.0277778
        k(   22) = (  -0.2500000   0.5833333  -0.2500000), wk =   0.0277778
        k(   23) = (   0.6666667  -0.3333333   0.6666667), wk =   0.0277778
        k(   24) = (   0.5833333  -0.2500000   0.5833333), wk =   0.0277778
        k(   25) = (   0.5000000  -0.1666667   0.5000000), wk =   0.0277778
        k(   26) = (   0.4166667  -0.0833333   0.4166667), wk =   0.0277778
        k(   27) = (   0.3333333   0.0000000   0.3333333), wk =   0.0138889
        k(   28) = (   0.0000000   0.5000000   0.0000000), wk =   0.0069444
        k(   29) = (  -0.0833333   0.5833333  -0.0833333), wk =   0.0277778
        k(   30) = (  -0.1666667   0.6666667  -0.1666667), wk =   0.0277778
        k(   31) = (   0.7500000  -0.2500000   0.7500000), wk =   0.0277778
        k(   32) = (   0.6666667  -0.1666667   0.6666667), wk =   0.0277778
        k(   33) = (   0.5833333  -0.0833333   0.5833333), wk =   0.0277778
        k(   34) = (   0.5000000   0.0000000   0.5000000), wk =   0.0138889
        k(   35) = (   0.0000000   0.6666667   0.0000000), wk =   0.0069444
        k(   36) = (  -0.0833333   0.7500000  -0.0833333), wk =   0.0277778
        k(   37) = (   0.8333333  -0.1666667   0.8333333), wk =   0.0277778
        k(   38) = (   0.7500000  -0.0833333   0.7500000), wk =   0.0277778
        k(   39) = (   0.6666667   0.0000000   0.6666667), wk =   0.0138889
        k(   40) = (   0.0000000   0.8333333   0.0000000), wk =   0.0069444
        k(   41) = (   0.9166667  -0.0833333   0.9166667), wk =   0.0277778
        k(   42) = (   0.8333333   0.0000000   0.8333333), wk =   0.0138889
        k(   43) = (   0.0000000  -1.0000000   0.0000000), wk =   0.0034722
        k(   44) = (  -0.1666667   0.3333333   0.0000000), wk =   0.0277778
        k(   45) = (  -0.2500000   0.4166667  -0.0833333), wk =   0.0555556
        k(   46) = (  -0.3333333   0.5000000  -0.1666667), wk =   0.0555556
        k(   47) = (   0.5833333  -0.4166667   0.7500000), wk =   0.0555556
        k(   48) = (   0.5000000  -0.3333333   0.6666667), wk =   0.0277778
        k(   49) = (  -0.1666667   0.5000000   0.0000000), wk =   0.0277778
        k(   50) = (  -0.2500000   0.5833333  -0.0833333), wk =   0.0555556
        k(   51) = (   0.6666667  -0.3333333   0.8333333), wk =   0.0555556
        k(   52) = (   0.5833333  -0.2500000   0.7500000), wk =   0.0555556
        k(   53) = (   0.5000000  -0.1666667   0.6666667), wk =   0.0555556
        k(   54) = (   0.4166667  -0.0833333   0.5833333), wk =   0.0555556
        k(   55) = (   0.3333333   0.0000000   0.5000000), wk =   0.0277778
        k(   56) = (  -0.1666667   0.6666667  -0.0000000), wk =   0.0277778
        k(   57) = (   0.7500000  -0.2500000   0.9166667), wk =   0.0555556
        k(   58) = (   0.6666667  -0.1666667   0.8333333), wk =   0.0555556
        k(   59) = (   0.5833333  -0.0833333   0.7500000), wk =   0.0555556
        k(   60) = (   0.5000000   0.0000000   0.6666667), wk =   0.0277778
        k(   61) = (   0.8333333  -0.1666667   1.0000000), wk =   0.0277778
        k(   62) = (   0.7500000  -0.0833333   0.9166667), wk =   0.0555556
        k(   63) = (   0.6666667   0.0000000   0.8333333), wk =   0.0277778
        k(   64) = (  -0.1666667  -1.0000000   0.0000000), wk =   0.0138889
        k(   65) = (   0.6666667  -0.3333333   1.0000000), wk =   0.0277778
        k(   66) = (   0.5833333  -0.2500000   0.9166667), wk =   0.0555556
        k(   67) = (   0.5000000  -0.1666667   0.8333333), wk =   0.0277778
        k(   68) = (   0.6666667  -0.1666667   1.0000000), wk =   0.0277778
        k(   69) = (   0.5833333  -0.0833333   0.9166667), wk =   0.0555556
        k(   70) = (   0.5000000   0.0000000   0.8333333), wk =   0.0277778
        k(   71) = (  -0.3333333  -1.0000000   0.0000000), wk =   0.0138889
        k(   72) = (  -0.5000000  -1.0000000   0.0000000), wk =   0.0069444

     Dense  grid:    17573 G-vectors     FFT dimensions: (  40,  40,  40)

     Smooth grid:     6231 G-vectors     FFT dimensions: (  25,  25,  25)

     Estimated max dynamical RAM per process >      11.77 MB

     Estimated total dynamical RAM >      23.55 MB

     Initial potential from superposition of free atoms

     starting charge       2.9975, renormalised to       3.0000
     Starting wfcs are    4 randomized atomic wfcs +    2 random wfcs

     total cpu time spent up to now is        0.3 secs

     Self-consistent Calculation

     iteration #  1     ecut=    40.00 Ry     beta= 0.70
     Davidson diagonalization with overlap
     ethr =  1.00E-02,  avg # of iterations =  5.4

     Threshold (ethr) on eigenvalues was too large:
     Diagonalizing with lowered threshold

     Davidson diagonalization with overlap
     ethr =  1.80E-04,  avg # of iterations =  2.8

     total cpu time spent up to now is        0.6 secs

     total energy              =     -12.41938329 Ry
     estimated scf accuracy    <       0.00521396 Ry

     iteration #  2     ecut=    40.00 Ry     beta= 0.70
     Davidson diagonalization with overlap
     ethr =  1.74E-04,  avg # of iterations =  1.1

     total cpu time spent up to now is        0.8 secs

     total energy              =     -12.41951055 Ry
     estimated scf accuracy    <       0.00024441 Ry

     iteration #  3     ecut=    40.00 Ry     beta= 0.70
     Davidson diagonalization with overlap
     c_bands:  1 eigenvalues not converged
     ethr =  8.15E-06,  avg # of iterations =  4.3

     total cpu time spent up to now is        0.9 secs

     total energy              =     -12.41954542 Ry
     estimated scf accuracy    <       0.00000111 Ry

     iteration #  4     ecut=    40.00 Ry     beta= 0.70
     Davidson diagonalization with overlap
     ethr =  3.70E-08,  avg # of iterations =  3.3

     total cpu time spent up to now is        1.1 secs

     total energy              =     -12.41954684 Ry
     estimated scf accuracy    <       0.00000007 Ry

     iteration #  5     ecut=    40.00 Ry     beta= 0.70
     Davidson diagonalization with overlap
     ethr =  2.19E-09,  avg # of iterations =  1.3

     total cpu time spent up to now is        1.2 secs

     End of self-consistent calculation

          k = 0.0000 0.0000 0.0000 (   749 PWs)   bands (ev):

    -4.4989  12.4138  12.4138  12.4138  13.9179  13.9179

          k =-0.0833 0.0833-0.0833 (   779 PWs)   bands (ev):

    -4.3641  10.8469  12.0568  12.0568  14.2067  14.4273

          k =-0.1667 0.1667-0.1667 (   785 PWs)   bands (ev):

    -3.9606   8.4852  11.5344  11.5345  14.0414  15.1104

          k =-0.2500 0.2500-0.2500 (   784 PWs)   bands (ev):

    -3.2913   6.1682  11.1468  11.1468  13.7948  14.7220

          k =-0.3333 0.3333-0.3333 (   769 PWs)   bands (ev):

    -2.3636   4.0293  10.9261  10.9261  13.6486  13.9353

          k =-0.4167 0.4167-0.4167 (   772 PWs)   bands (ev):

    -1.2017   2.1312  10.8410  10.8410  13.3545  13.3545

          k = 0.5000-0.5000 0.5000 (   778 PWs)   bands (ev):

    -0.1829   0.8657  10.8262  10.8262  13.1417  13.6170

          k = 0.0000 0.1667 0.0000 (   781 PWs)   bands (ev):

    -4.3191  11.3237  11.3237  11.8689  12.9703  15.2303

          k =-0.0833 0.2500-0.0833 (   785 PWs)   bands (ev):

    -4.0052   9.3592  10.6917  11.5701  13.1670  15.4102

          k =-0.1667 0.3333-0.1667 (   794 PWs)   bands (ev):

    -3.4244   7.0269  10.2555  11.0669  13.2971  14.9357

          k =-0.2500 0.4167-0.2500 (   780 PWs)   bands (ev):

    -2.5820   4.8279  10.0357  10.5965  12.7106  14.8522

          k =-0.3333 0.5000-0.3333 (   784 PWs)   bands (ev):

    -1.4930   2.8445  10.0326  10.1337  12.3592  14.5357

          k = 0.5833-0.4167 0.5833 (   783 PWs)   bands (ev):

    -0.2709   1.2127   9.7018  10.2337  12.4128  13.9682

          k = 0.5000-0.3333 0.5000 (   784 PWs)   bands (ev):

    -0.6644   1.6885   9.3869  10.6094  12.8176  13.6778

          k = 0.4167-0.2500 0.4167 (   779 PWs)   bands (ev):

    -1.8816   3.4786   9.2529  11.1029  13.5037  13.7204

          k = 0.3333-0.1667 0.3333 (   780 PWs)   bands (ev):

    -2.8915   5.5411   9.3305  11.6363  14.1252  14.3406

          k = 0.2500-0.0833 0.2500 (   788 PWs)   bands (ev):

    -3.6475   7.7993   9.6304  12.1447  14.6067  14.6191

          k = 0.1667-0.0000 0.1667 (   783 PWs)   bands (ev):

    -4.1397  10.1129  10.1844  12.4521  14.2658  14.4943

          k = 0.0000 0.3333 0.0000 (   785 PWs)   bands (ev):

    -3.7810   9.9778   9.9778  10.6047  11.5541  13.8391

          k =-0.0833 0.4167-0.0833 (   787 PWs)   bands (ev):

    -3.2896   8.0670   9.4689  10.0871  11.7049  13.0796

          k =-0.1667 0.5000-0.1667 (   786 PWs)   bands (ev):

    -2.5350   5.8540   9.1852   9.3247  11.4027  14.0982

          k =-0.2500 0.5833-0.2500 (   783 PWs)   bands (ev):

    -1.5269   3.8080   8.5486   9.1317  11.1792  15.5493

          k = 0.6667-0.3333 0.6667 (   780 PWs)   bands (ev):

    -0.3113   2.0257   7.8841   9.3068  11.2874  15.5929

          k = 0.5833-0.2500 0.5833 (   778 PWs)   bands (ev):

     0.0800   1.5541   7.4057   9.7024  11.6957  15.1391

          k = 0.5000-0.1667 0.5000 (   781 PWs)   bands (ev):

    -1.1413   3.1837   7.1478  10.2996  12.3735  14.9350

          k = 0.4167-0.0833 0.4167 (   787 PWs)   bands (ev):

    -2.2279   5.1588   7.1251  11.0531  13.2895  15.0057

          k = 0.3333 0.0000 0.3333 (   791 PWs)   bands (ev):

    -3.0682   7.3208   7.3634  11.8296  14.3750  15.3038

          k = 0.0000 0.5000 0.0000 (   769 PWs)   bands (ev):

    -2.8880   8.7752   8.8843   8.8843  10.3582  11.6072

          k =-0.0833 0.5833-0.0833 (   786 PWs)   bands (ev):

    -2.2224   6.9776   8.0033   8.5259  10.4040  11.7409

          k =-0.1667 0.6667-0.1667 (   777 PWs)   bands (ev):

    -1.2998   4.9700   6.9683   8.4012  10.2681  13.3166

          k = 0.7500-0.2500 0.7500 (   777 PWs)   bands (ev):

    -0.1439   3.1211   6.1286   8.5112  10.3558  15.2084

          k = 0.6667-0.1667 0.6667 (   771 PWs)   bands (ev):

     0.8704   1.8760   5.5178   8.8527  10.7167  17.0027

          k = 0.5833-0.0833 0.5833 (   781 PWs)   bands (ev):

    -0.1550   3.1491   5.1499   9.4163  11.3414  16.6455

          k = 0.5000 0.0000 0.5000 (   784 PWs)   bands (ev):

    -1.3078   4.9764   5.0800  10.1775  12.2125  16.3294

          k = 0.0000 0.6667 0.0000 (   777 PWs)   bands (ev):

    -1.6463   6.4256   8.0908   8.0908   9.4831  10.3399

          k =-0.0833 0.7500-0.0833 (   777 PWs)   bands (ev):

    -0.8118   5.2279   6.6263   7.8898   9.6103  10.9977

          k = 0.8333-0.1667 0.8333 (   769 PWs)   bands (ev):

     0.2666   4.0493   4.9682   7.9256   9.6764  12.8392

          k = 0.7500-0.0833 0.7500 (   770 PWs)   bands (ev):

     1.4748   2.7617   3.9476   8.1972   9.9745  14.9556

          k = 0.6667 0.0000 0.6667 (   776 PWs)   bands (ev):

     1.0296   3.2762   3.4958   8.6991  10.5322  17.1244

          k = 0.0000 0.8333 0.0000 (   785 PWs)   bands (ev):

    -0.0663   4.0292   7.6113   7.6113   8.9529   9.6996

          k = 0.9167-0.0833 0.9167 (   772 PWs)   bands (ev):

     0.9267   2.9747   6.2278   7.5700   9.2322  10.6427

          k = 0.8333 0.0000 0.8333 (   772 PWs)   bands (ev):

     2.0214   2.2502   4.5465   7.7664   9.4864  12.6788

          k = 0.0000-1.0000 0.0000 (   790 PWs)   bands (ev):

     1.7669   1.9074   7.4509   7.4509   8.7756   9.4981

          k =-0.1667 0.3333 0.0000 (   780 PWs)   bands (ev):

    -3.6025   8.7444   8.7717  11.5723  13.0597  14.3349

          k =-0.2500 0.4167-0.0833 (   781 PWs)   bands (ev):

    -2.9347   6.4842   8.3775  10.9247  13.1100  14.5690

          k =-0.3333 0.5000-0.1667 (   785 PWs)   bands (ev):

    -2.0088   4.3609   8.2208  10.1295  12.8338  14.5591

          k = 0.5833-0.4167 0.7500 (   779 PWs)   bands (ev):

    -0.8489   2.4704   8.2608   9.4639  12.7932  13.9362

          k = 0.5000-0.3333 0.6667 (   774 PWs)   bands (ev):

     0.1709   1.2054   8.3507   9.1584  12.8539  13.6375

          k =-0.1667 0.5000 0.0000 (   788 PWs)   bands (ev):

    -2.7111   7.5591   7.6263   9.5335  11.9322  12.5556

          k =-0.2500 0.5833-0.0833 (   779 PWs)   bands (ev):

    -1.8722   5.4621   7.3139   8.6005  11.9570  13.7280

          k = 0.6667-0.3333 0.8333 (   785 PWs)   bands (ev):

    -0.7875   3.5076   7.0877   7.9679  11.9602  15.1900

          k = 0.5833-0.2500 0.7500 (   779 PWs)   bands (ev):

     0.4324   1.8875   6.6738   7.9774  12.2056  15.0259

          k = 0.5000-0.1667 0.6667 (   777 PWs)   bands (ev):

     0.0352   2.3677   6.2992   8.4214  12.6784  14.6848

          k = 0.4167-0.0833 0.5833 (   779 PWs)   bands (ev):

    -1.1774   4.1454   6.1244   9.1344  13.3232  14.5764

          k = 0.3333 0.0000 0.5000 (   783 PWs)   bands (ev):

    -2.1824   6.1539   6.2116  10.0426  13.9386  14.3396

          k =-0.1667 0.6667-0.0000 (   782 PWs)   bands (ev):

    -1.4723   6.2581   6.7964   7.4694  11.1011  11.5587

          k = 0.7500-0.2500 0.9167 (   775 PWs)   bands (ev):

    -0.4707   4.6736   5.8037   7.0226  11.2552  13.1118

          k = 0.6667-0.1667 0.8333 (   771 PWs)   bands (ev):

     0.7376   2.9887   5.0235   7.1439  11.4543  15.0887

          k = 0.5833-0.0833 0.7500 (   774 PWs)   bands (ev):

     1.1090   2.5622   4.4816   7.5649  11.8903  16.4209

          k = 0.5000 0.0000 0.6667 (   780 PWs)   bands (ev):

    -0.1030   4.1279   4.2431   8.2392  12.5488  16.3026

          k = 0.8333-0.1667 1.0000 (   777 PWs)   bands (ev):

     0.1023   4.1467   6.2952   6.6302  10.5961  11.0153

          k = 0.7500-0.0833 0.9167 (   772 PWs)   bands (ev):

     1.2453   3.2211   4.6967   6.5912  10.9112  12.7965

          k = 0.6667 0.0000 0.8333 (   772 PWs)   bands (ev):

     2.0887   2.7636   3.4525   6.9496  11.2862  14.9787

          k =-0.1667-1.0000 0.0000 (   766 PWs)   bands (ev):

     1.9104   2.0788   6.1277   6.4207  10.4271  10.8387

          k = 0.6667-0.3333 1.0000 (   781 PWs)   bands (ev):

    -0.9536   5.2998   5.3114   7.5543  13.5481  13.5722

          k = 0.5833-0.2500 0.9167 (   771 PWs)   bands (ev):

     0.1973   3.4619   5.3525   6.7587  13.5789  14.7255

          k = 0.5000-0.1667 0.8333 (   776 PWs)   bands (ev):

     1.2160   2.2078   5.4459   6.4141  13.6405  14.6052

          k = 0.6667-0.1667 1.0000 (   767 PWs)   bands (ev):

     0.5998   4.2729   4.8034   5.6285  13.0622  13.1897

          k = 0.5833-0.0833 0.9167 (   767 PWs)   bands (ev):

     1.7996   3.1041   4.1276   5.4606  13.3744  15.1162

          k = 0.5000 0.0000 0.8333 (   768 PWs)   bands (ev):

     1.3787   3.6169   3.7189   5.9346  13.7913  15.8443

          k =-0.3333-1.0000 0.0000 (   768 PWs)   bands (ev):

     2.2885   2.5925   4.6338   5.1444  12.8988  13.0497

          k =-0.5000-1.0000 0.0000 (   772 PWs)   bands (ev):

     2.5769   3.4463   3.4463   4.5403  14.7963  15.6895

     the Fermi energy is     3.6008 ev

!    total energy              =     -12.41954684 Ry
     estimated scf accuracy    <          1.8E-09 Ry
     smearing contrib. (-TS)   =       0.00010170 Ry
     internal energy E=F+TS    =     -12.41964853 Ry

     The total energy is F=E-TS. E is the sum of the following terms:
     one-electron contribution =       1.95916111 Ry
     hartree contribution      =       0.02510271 Ry
     xc contribution           =      -9.81905028 Ry
     ewald contribution        =      -4.58486207 Ry

     convergence has been achieved in   5 iterations

     Forces acting on atoms (cartesian axes, Ry/au):

     atom    1 type  1   force =     0.00000000    0.00000000    0.00000000

     Total force =     0.000000     Total SCF correction =     0.000000


     Computing stress (Cartesian axis) and pressure

          total   stress  (Ry/bohr**3)                   (kbar)     P=     -116.08
  -0.00078908   0.00000000   0.00000000         -116.08        0.00        0.00
   0.00000000  -0.00078908  -0.00000000            0.00     -116.08       -0.00
   0.00000000  -0.00000000  -0.00078908            0.00       -0.00     -116.08


     Writing all to output data dir /Users/zhy/Aluminum-from-First-Principles/convergence-runs/cutoff-kmesh/ecut-040.0-ry_k-12x12x12_degauss-0.050-ry/qe-out/aluminum_ecut-040p0-ry_k-12x12x12_degauss-0p050-ry.save/ :
     XML data file, charge density, pseudopotentials, collected wavefunctions

     init_run     :      0.27s CPU      0.28s WALL (       1 calls)
     electrons    :      0.85s CPU      0.89s WALL (       1 calls)
     forces       :      0.01s CPU      0.01s WALL (       1 calls)
     stress       :      0.04s CPU      0.04s WALL (       1 calls)

     Called by init_run:
     wfcinit      :      0.05s CPU      0.05s WALL (       1 calls)
     potinit      :      0.04s CPU      0.04s WALL (       1 calls)
     hinit0       :      0.16s CPU      0.16s WALL (       1 calls)

     Called by electrons:
     c_bands      :      0.68s CPU      0.71s WALL (       6 calls)
     sum_band     :      0.13s CPU      0.14s WALL (       6 calls)
     v_of_rho     :      0.04s CPU      0.04s WALL (       6 calls)
     newd         :      0.01s CPU      0.01s WALL (       6 calls)
     mix_rho      :      0.00s CPU      0.00s WALL (       6 calls)

     Called by c_bands:
     init_us_2    :      0.02s CPU      0.02s WALL (    1080 calls)
     cegterg      :      0.67s CPU      0.69s WALL (     432 calls)

     Called by *egterg:
     cdiaghg      :      0.04s CPU      0.04s WALL (    1666 calls)
     h_psi        :      0.60s CPU      0.62s WALL (    1810 calls)
     s_psi        :      0.01s CPU      0.01s WALL (    1810 calls)
     g_psi        :      0.00s CPU      0.00s WALL (    1306 calls)

     Called by h_psi:
     h_psi:calbec :      0.01s CPU      0.01s WALL (    1810 calls)
     vloc_psi     :      0.59s CPU      0.60s WALL (    1810 calls)
     add_vuspsi   :      0.01s CPU      0.01s WALL (    1810 calls)

     General routines
     calbec       :      0.01s CPU      0.02s WALL (    3466 calls)
     fft          :      0.15s CPU      0.16s WALL (     102 calls)
     ffts         :      0.03s CPU      0.03s WALL (      12 calls)
     fftw         :      0.61s CPU      0.63s WALL (   17386 calls)
     interpolate  :      0.03s CPU      0.03s WALL (       6 calls)

     Parallel routines

     PWSCF        :      1.20s CPU      1.25s WALL


   This run was terminated on:  23:45:42  22Sep2026            

=------------------------------------------------------------------------------=
   JOB DONE.
=------------------------------------------------------------------------------=
Note: The following floating-point exceptions are signalling: IEEE_UNDERFLOW_FLAG
Note: The following floating-point exceptions are signalling: IEEE_INVALID_FLAG IEEE_DIVIDE_BY_ZERO IEEE_UNDERFLOW_FLAG
