
     Program PWSCF v.7.6 starts on 22Sep2026 at 23:45:26 

     This program is part of the open-source Quantum ESPRESSO suite
     for quantum simulation of materials; please cite
         "P. Giannozzi et al., J. Phys.:Condens. Matter 21 395502 (2009);
         "P. Giannozzi et al., J. Phys.:Condens. Matter 29 465901 (2017);
         "P. Giannozzi et al., J. Chem. Phys. 152 154105 (2020);
          URL http://www.quantum-espresso.org", 
     in publications or presentations arising from this work. More details at
     http://www.quantum-espresso.org/quote

     Parallel version (MPI), running on     2 processors

     MPI processes distributed on     1 nodes
     0 MiB available memory on the printing compute node when the environment starts

     Reading input from Al.scf.inp

     Current dimensions of program PWSCF are:
     Max number of different atomic species (ntypx) = 10
     Max number of k-points (npk) =  40000
     Max angular momentum in pseudopotentials (lmaxx) =  4

     R & G space division:  proc/nbgrp/npool/nimage =       2
     Subspace diagonalization in iterative solution of the eigenvalue problem:
     a serial algorithm will be used


     Parallelization info
     --------------------
     sticks:   dense  smooth     PW     G-vecs:    dense   smooth      PW
     Min         336     168     60                 5786     2007     410
     Max         337     169     61                 5789     2008     411
     Sum         673     337    121                11575     4015     821

     Using Slab Decomposition



     bravais-lattice index     =            2
     lattice parameter (alat)  =       9.0000  a.u.
     unit-cell volume          =     182.2500 (a.u.)^3
     number of atoms/cell      =            1
     number of atomic types    =            1
     number of electrons       =         3.00
     number of Kohn-Sham states=            6
     kinetic-energy cutoff     =      30.0000  Ry
     charge density cutoff     =     240.0000  Ry
     scf convergence threshold =      1.0E-08
     mixing beta               =       0.7000
     number of iterations used =            8  plain     mixing
     Exchange-correlation= SLA  PW   PBE  PBE
                           (   1   4   3   4   0   0   0)

     celldm(1)=   9.000000  celldm(2)=   0.000000  celldm(3)=   0.000000
     celldm(4)=   0.000000  celldm(5)=   0.000000  celldm(6)=   0.000000

     crystal axes: (cart. coord. in units of alat)
               a(1) = (  -0.500000   0.000000   0.500000 )  
               a(2) = (   0.000000   0.500000   0.500000 )  
               a(3) = (  -0.500000   0.500000   0.000000 )  

     reciprocal axes: (cart. coord. in units 2 pi/alat)
               b(1) = ( -1.000000 -1.000000  1.000000 )  
               b(2) = (  1.000000  1.000000  1.000000 )  
               b(3) = ( -1.000000  1.000000 -1.000000 )  


     PseudoPot. # 1 for Al read from file:
     /Users/zhy/Aluminum-from-First-Principles/Al.pbe-n-van.UPF
     MD5 check sum: cbc97ad259b400557db688b98a6ada97
     Pseudo is Ultrasoft + core correction, Zval =  3.0
     Generated by new atomic code, or converted to UPF format
     Using radial grid of  893 points,  2 beta functions with: 
                l(1) =   0
                l(2) =   1
     Q(r) pseudized with  8 coefficients,  rinner =    0.900   0.900   0.900


     atomic species   valence    mass     pseudopotential
     Al                3.00    26.98200     Al( 1.00)

     48 Sym. Ops., with inversion, found



   Cartesian axes

     site n.     atom                  positions (alat units)
         1        Al     tau(   1) = (   0.0000000   0.0000000   0.0000000  )

     number of k points=    47  Methfessel-Paxton smearing, width (Ry)=  0.0500
                       cart. coord. in units 2pi/alat
        k(    1) = (   0.0000000   0.0000000   0.0000000), wk =   0.0020000
        k(    2) = (  -0.1000000   0.1000000  -0.1000000), wk =   0.0160000
        k(    3) = (  -0.2000000   0.2000000  -0.2000000), wk =   0.0160000
        k(    4) = (  -0.3000000   0.3000000  -0.3000000), wk =   0.0160000
        k(    5) = (  -0.4000000   0.4000000  -0.4000000), wk =   0.0160000
        k(    6) = (   0.5000000  -0.5000000   0.5000000), wk =   0.0080000
        k(    7) = (   0.0000000   0.2000000   0.0000000), wk =   0.0120000
        k(    8) = (  -0.1000000   0.3000000  -0.1000000), wk =   0.0480000
        k(    9) = (  -0.2000000   0.4000000  -0.2000000), wk =   0.0480000
        k(   10) = (  -0.3000000   0.5000000  -0.3000000), wk =   0.0480000
        k(   11) = (   0.6000000  -0.4000000   0.6000000), wk =   0.0480000
        k(   12) = (   0.5000000  -0.3000000   0.5000000), wk =   0.0480000
        k(   13) = (   0.4000000  -0.2000000   0.4000000), wk =   0.0480000
        k(   14) = (   0.3000000  -0.1000000   0.3000000), wk =   0.0480000
        k(   15) = (   0.2000000   0.0000000   0.2000000), wk =   0.0240000
        k(   16) = (   0.0000000   0.4000000   0.0000000), wk =   0.0120000
        k(   17) = (  -0.1000000   0.5000000  -0.1000000), wk =   0.0480000
        k(   18) = (  -0.2000000   0.6000000  -0.2000000), wk =   0.0480000
        k(   19) = (   0.7000000  -0.3000000   0.7000000), wk =   0.0480000
        k(   20) = (   0.6000000  -0.2000000   0.6000000), wk =   0.0480000
        k(   21) = (   0.5000000  -0.1000000   0.5000000), wk =   0.0480000
        k(   22) = (   0.4000000   0.0000000   0.4000000), wk =   0.0240000
        k(   23) = (   0.0000000   0.6000000   0.0000000), wk =   0.0120000
        k(   24) = (  -0.1000000   0.7000000  -0.1000000), wk =   0.0480000
        k(   25) = (   0.8000000  -0.2000000   0.8000000), wk =   0.0480000
        k(   26) = (   0.7000000  -0.1000000   0.7000000), wk =   0.0480000
        k(   27) = (   0.6000000   0.0000000   0.6000000), wk =   0.0240000
        k(   28) = (   0.0000000   0.8000000   0.0000000), wk =   0.0120000
        k(   29) = (   0.9000000  -0.1000000   0.9000000), wk =   0.0480000
        k(   30) = (   0.8000000   0.0000000   0.8000000), wk =   0.0240000
        k(   31) = (   0.0000000  -1.0000000   0.0000000), wk =   0.0060000
        k(   32) = (  -0.2000000   0.4000000   0.0000000), wk =   0.0480000
        k(   33) = (  -0.3000000   0.5000000  -0.1000000), wk =   0.0960000
        k(   34) = (   0.6000000  -0.4000000   0.8000000), wk =   0.0960000
        k(   35) = (   0.5000000  -0.3000000   0.7000000), wk =   0.0480000
        k(   36) = (  -0.2000000   0.6000000   0.0000000), wk =   0.0480000
        k(   37) = (   0.7000000  -0.3000000   0.9000000), wk =   0.0960000
        k(   38) = (   0.6000000  -0.2000000   0.8000000), wk =   0.0960000
        k(   39) = (   0.5000000  -0.1000000   0.7000000), wk =   0.0960000
        k(   40) = (   0.4000000   0.0000000   0.6000000), wk =   0.0480000
        k(   41) = (   0.8000000  -0.2000000   1.0000000), wk =   0.0480000
        k(   42) = (   0.7000000  -0.1000000   0.9000000), wk =   0.0960000
        k(   43) = (   0.6000000   0.0000000   0.8000000), wk =   0.0480000
        k(   44) = (  -0.2000000  -1.0000000   0.0000000), wk =   0.0240000
        k(   45) = (   0.6000000  -0.2000000   1.0000000), wk =   0.0480000
        k(   46) = (   0.5000000  -0.1000000   0.9000000), wk =   0.0480000
        k(   47) = (  -0.4000000  -1.0000000   0.0000000), wk =   0.0240000

     Dense  grid:    11575 G-vectors     FFT dimensions: (  32,  32,  32)

     Smooth grid:     4015 G-vectors     FFT dimensions: (  24,  24,  24)

     Estimated max dynamical RAM per process >       6.86 MB

     Estimated total dynamical RAM >      13.71 MB

     Initial potential from superposition of free atoms

     starting charge       2.9975, renormalised to       3.0000
     Starting wfcs are    4 randomized atomic wfcs +    2 random wfcs

     total cpu time spent up to now is        0.2 secs

     Self-consistent Calculation

     iteration #  1     ecut=    30.00 Ry     beta= 0.70
     Davidson diagonalization with overlap
     ethr =  1.00E-02,  avg # of iterations =  5.3

     Threshold (ethr) on eigenvalues was too large:
     Diagonalizing with lowered threshold

     Davidson diagonalization with overlap
     ethr =  1.77E-04,  avg # of iterations =  3.2

     total cpu time spent up to now is        0.5 secs

     total energy              =     -12.41907147 Ry
     estimated scf accuracy    <       0.00518470 Ry

     iteration #  2     ecut=    30.00 Ry     beta= 0.70
     Davidson diagonalization with overlap
     ethr =  1.73E-04,  avg # of iterations =  1.0

     total cpu time spent up to now is        0.5 secs

     total energy              =     -12.41919357 Ry
     estimated scf accuracy    <       0.00024289 Ry

     iteration #  3     ecut=    30.00 Ry     beta= 0.70
     Davidson diagonalization with overlap
     ethr =  8.10E-06,  avg # of iterations =  3.4

     total cpu time spent up to now is        0.6 secs

     total energy              =     -12.41922519 Ry
     estimated scf accuracy    <       0.00000101 Ry

     iteration #  4     ecut=    30.00 Ry     beta= 0.70
     Davidson diagonalization with overlap
     ethr =  3.37E-08,  avg # of iterations =  3.1

     total cpu time spent up to now is        0.7 secs

     total energy              =     -12.41922648 Ry
     estimated scf accuracy    <       0.00000005 Ry

     iteration #  5     ecut=    30.00 Ry     beta= 0.70
     Davidson diagonalization with overlap
     ethr =  1.70E-09,  avg # of iterations =  1.3

     total cpu time spent up to now is        0.8 secs

     End of self-consistent calculation

          k = 0.0000 0.0000 0.0000 (   531 PWs)   bands (ev):

    -4.4986  12.4249  12.4249  12.4249  13.9243  13.9244

          k =-0.1000 0.1000-0.1000 (   528 PWs)   bands (ev):

    -4.3045  10.3958  11.9582  11.9582  14.2127  14.6005

          k =-0.2000 0.2000-0.2000 (   516 PWs)   bands (ev):

    -3.7239   7.5506  11.3698  11.3699  13.9480  15.1011

          k =-0.3000 0.3000-0.3000 (   510 PWs)   bands (ev):

    -2.7640   4.8646  11.0071  11.0071  13.7060  14.2500

          k =-0.4000 0.4000-0.4000 (   498 PWs)   bands (ev):

    -1.4481   2.4914  10.8646  10.8646  13.4537  13.4537

          k = 0.5000-0.5000 0.5000 (   502 PWs)   bands (ev):

    -0.1812   0.8692  10.8397  10.8397  13.1494  13.6347

          k = 0.0000 0.2000 0.0000 (   524 PWs)   bands (ev):

    -4.2397  11.0498  11.0498  11.6730  12.6883  15.6200

          k =-0.1000 0.3000-0.1000 (   511 PWs)   bands (ev):

    -3.7878   8.6241  10.3386  11.2320  12.9995  14.7659

          k =-0.2000 0.4000-0.2000 (   507 PWs)   bands (ev):

    -2.9538   5.8825   9.9298  10.5935  12.6612  15.0490

          k =-0.3000 0.5000-0.3000 (   506 PWs)   bands (ev):

    -1.7524   3.4024   9.8393   9.9551  12.1457  15.0116

          k = 0.6000-0.4000 0.6000 (   504 PWs)   bands (ev):

    -0.2895   1.3505   9.3586  10.0586  12.1894  14.2673

          k = 0.5000-0.3000 0.5000 (   504 PWs)   bands (ev):

    -0.7790   1.9584   8.9560  10.5528  12.7221  13.8962

          k = 0.4000-0.2000 0.4000 (   510 PWs)   bands (ev):

    -2.1922   4.1941   8.8386  11.2367  13.6395  13.9776

          k = 0.3000-0.1000 0.3000 (   507 PWs)   bands (ev):

    -3.2739   6.7783   9.0433  11.9618  14.5163  14.7048

          k = 0.2000 0.0000 0.2000 (   519 PWs)   bands (ev):

    -3.9814   9.5511   9.5948  12.4432  14.4258  14.6618

          k = 0.0000 0.4000 0.0000 (   504 PWs)   bands (ev):

    -3.4654   9.5157   9.5157   9.9678  11.0458  12.8357

          k =-0.1000 0.5000-0.1000 (   508 PWs)   bands (ev):

    -2.7597   7.1877   9.0022   9.1404  11.0959  12.6284

          k =-0.2000 0.6000-0.2000 (   509 PWs)   bands (ev):

    -1.6806   4.6563   8.0700   8.8214  10.8020  14.4301

          k = 0.7000-0.3000 0.7000 (   510 PWs)   bands (ev):

    -0.2705   2.4400   7.1666   8.9742  10.8917  16.3178

          k = 0.6000-0.2000 0.6000 (   500 PWs)   bands (ev):

     0.2138   1.8423   6.5561   9.4549  11.3972  15.7874

          k = 0.5000-0.1000 0.5000 (   507 PWs)   bands (ev):

    -1.2461   3.8876   6.2794  10.2328  12.2795  15.5639

          k = 0.4000 0.0000 0.4000 (   509 PWs)   bands (ev):

    -2.4433   6.3152   6.3884  11.2216  13.4882  15.6143

          k = 0.0000 0.6000 0.0000 (   508 PWs)   bands (ev):

    -2.1831   7.4046   8.3793   8.3793   9.7974  10.7580

          k =-0.1000 0.7000-0.1000 (   503 PWs)   bands (ev):

    -1.2307   5.8067   6.6565   8.0908   9.8671  11.5603

          k = 0.8000-0.2000 0.8000 (   506 PWs)   bands (ev):

     0.0748   3.8319   5.2348   8.1405   9.9231  13.7993

          k = 0.7000-0.1000 0.7000 (   507 PWs)   bands (ev):

     1.3238   2.3061   4.3969   8.5295  10.3440  16.3086

          k = 0.6000 0.0000 0.6000 (   512 PWs)   bands (ev):

     0.0496   3.8808   4.0240   9.2416  11.1383  17.4223

          k = 0.0000 0.8000 0.0000 (   496 PWs)   bands (ev):

    -0.4063   4.5013   7.6902   7.6902   9.0358   9.7975

          k = 0.9000-0.1000 0.9000 (   494 PWs)   bands (ev):

     0.7778   3.2262   5.9206   7.6307   9.3132  11.0603

          k = 0.8000 0.0000 0.8000 (   494 PWs)   bands (ev):

     2.0886   2.4052   3.9787   7.9132   9.6498  13.5796

          k = 0.0000-1.0000 0.0000 (   492 PWs)   bands (ev):

     1.7697   1.9119   7.4593   7.4593   8.7803   9.5058

          k =-0.2000 0.4000 0.0000 (   508 PWs)   bands (ev):

    -3.2090   7.9703   7.9744  11.0106  13.0293  13.7668

          k =-0.3000 0.5000-0.1000 (   514 PWs)   bands (ev):

    -2.2521   5.3327   7.6478   9.9770  12.9538  14.6708

          k = 0.6000-0.4000 0.8000 (   510 PWs)   bands (ev):

    -0.9399   2.9771   7.6327   9.0469  12.8707  14.1960

          k = 0.5000-0.3000 0.7000 (   506 PWs)   bands (ev):

     0.3277   1.3578   7.7431   8.6103  12.9501  13.7965

          k =-0.2000 0.6000 0.0000 (   507 PWs)   bands (ev):

    -1.9307   6.6381   6.7799   8.2193  11.8598  12.2775

          k = 0.7000-0.3000 0.9000 (   501 PWs)   bands (ev):

    -0.7360   4.3290   6.3624   7.2811  11.9699  14.1434

          k = 0.6000-0.2000 0.8000 (   500 PWs)   bands (ev):

     0.7205   2.3138   5.7734   7.2619  12.2343  15.5368

          k = 0.5000-0.1000 0.7000 (   508 PWs)   bands (ev):

     0.2243   2.9310   5.2978   7.8372  12.8219  15.2200

          k = 0.4000 0.0000 0.6000 (   511 PWs)   bands (ev):

    -1.1787   5.1018   5.1760   8.7884  13.6221  14.9039

          k = 0.8000-0.2000 1.0000 (   499 PWs)   bands (ev):

    -0.1617   4.6289   6.0562   6.4910  11.1401  11.5121

          k = 0.7000-0.1000 0.9000 (   501 PWs)   bands (ev):

     1.2324   3.4136   4.3206   6.4354  11.4884  13.7354

          k = 0.6000 0.0000 0.8000 (   503 PWs)   bands (ev):

     1.6282   3.1439   3.4293   6.9505  12.0085  16.2537

          k =-0.2000-1.0000 0.0000 (   494 PWs)   bands (ev):

     1.9741   2.1587   5.8137   6.1476  10.8989  11.2650

          k = 0.6000-0.2000 1.0000 (   499 PWs)   bands (ev):

     0.5567   4.2862   4.3691   5.9769  14.0359  14.2229

          k = 0.5000-0.1000 0.9000 (   510 PWs)   bands (ev):

     1.8100   2.7724   4.4508   5.4524  14.1608  15.1343

          k =-0.4000-1.0000 0.0000 (   506 PWs)   bands (ev):

     2.4549   2.8975   4.1241   4.7830  13.9641  13.9914

     the Fermi energy is     3.6517 ev

!    total energy              =     -12.41922648 Ry
     estimated scf accuracy    <          1.5E-09 Ry
     smearing contrib. (-TS)   =       0.00097536 Ry
     internal energy E=F+TS    =     -12.42020185 Ry

     The total energy is F=E-TS. E is the sum of the following terms:
     one-electron contribution =       1.95786778 Ry
     hartree contribution      =       0.02522358 Ry
     xc contribution           =      -9.81843113 Ry
     ewald contribution        =      -4.58486207 Ry

     convergence has been achieved in   5 iterations

     Forces acting on atoms (cartesian axes, Ry/au):

     atom    1 type  1   force =     0.00000000    0.00000000    0.00000000

     Total force =     0.000000     Total SCF correction =     0.000000


     Computing stress (Cartesian axis) and pressure

          total   stress  (Ry/bohr**3)                   (kbar)     P=     -117.78
  -0.00080062   0.00000000   0.00000000         -117.78        0.00        0.00
   0.00000000  -0.00080062  -0.00000000            0.00     -117.78       -0.00
   0.00000000  -0.00000000  -0.00080062            0.00       -0.00     -117.78


     Writing all to output data dir /Users/zhy/Aluminum-from-First-Principles/convergence-runs/cutoff-kmesh/ecut-030.0-ry_k-10x10x10_degauss-0.050-ry/qe-out/aluminum_ecut-030p0-ry_k-10x10x10_degauss-0p050-ry.save/ :
     XML data file, charge density, pseudopotentials, collected wavefunctions

     init_run     :      0.23s CPU      0.24s WALL (       1 calls)
     electrons    :      0.50s CPU      0.52s WALL (       1 calls)
     forces       :      0.01s CPU      0.01s WALL (       1 calls)
     stress       :      0.02s CPU      0.02s WALL (       1 calls)

     Called by init_run:
     wfcinit      :      0.02s CPU      0.03s WALL (       1 calls)
     potinit      :      0.10s CPU      0.10s WALL (       1 calls)
     hinit0       :      0.10s CPU      0.10s WALL (       1 calls)

     Called by electrons:
     c_bands      :      0.40s CPU      0.41s WALL (       6 calls)
     sum_band     :      0.08s CPU      0.08s WALL (       6 calls)
     v_of_rho     :      0.02s CPU      0.02s WALL (       6 calls)
     newd         :      0.00s CPU      0.00s WALL (       6 calls)
     mix_rho      :      0.00s CPU      0.00s WALL (       6 calls)

     Called by c_bands:
     init_us_2    :      0.01s CPU      0.01s WALL (     705 calls)
     cegterg      :      0.39s CPU      0.41s WALL (     282 calls)

     Called by *egterg:
     cdiaghg      :      0.02s CPU      0.02s WALL (    1053 calls)
     h_psi        :      0.36s CPU      0.37s WALL (    1147 calls)
     s_psi        :      0.00s CPU      0.00s WALL (    1147 calls)
     g_psi        :      0.00s CPU      0.00s WALL (     818 calls)

     Called by h_psi:
     h_psi:calbec :      0.00s CPU      0.00s WALL (    1147 calls)
     vloc_psi     :      0.35s CPU      0.36s WALL (    1147 calls)
     add_vuspsi   :      0.00s CPU      0.00s WALL (    1147 calls)

     General routines
     calbec       :      0.01s CPU      0.01s WALL (    2228 calls)
     fft          :      0.08s CPU      0.09s WALL (     102 calls)
     ffts         :      0.09s CPU      0.09s WALL (      12 calls)
     fftw         :      0.38s CPU      0.38s WALL (   11202 calls)
     interpolate  :      0.09s CPU      0.09s WALL (       6 calls)

     Parallel routines

     PWSCF        :      0.78s CPU      0.81s WALL


   This run was terminated on:  23:45:27  22Sep2026            

=------------------------------------------------------------------------------=
   JOB DONE.
=------------------------------------------------------------------------------=
Note: The following floating-point exceptions are signalling: IEEE_UNDERFLOW_FLAG
Note: The following floating-point exceptions are signalling: IEEE_INVALID_FLAG IEEE_DIVIDE_BY_ZERO IEEE_UNDERFLOW_FLAG
