
     Program PWSCF v.7.6 starts on 26Sep2026 at  1:38:13 

     This program is part of the open-source Quantum ESPRESSO suite
     for quantum simulation of materials; please cite
         "P. Giannozzi et al., J. Phys.:Condens. Matter 21 395502 (2009);
         "P. Giannozzi et al., J. Phys.:Condens. Matter 29 465901 (2017);
         "P. Giannozzi et al., J. Chem. Phys. 152 154105 (2020);
          URL http://www.quantum-espresso.org", 
     in publications or presentations arising from this work. More details at
     http://www.quantum-espresso.org/quote

     Parallel version (MPI), running on     2 processors

     MPI processes distributed on     1 nodes
     0 MiB available memory on the printing compute node when the environment starts

     Reading input from Al.relax.inp

     Current dimensions of program PWSCF are:
     Max number of different atomic species (ntypx) = 10
     Max number of k-points (npk) =  40000
     Max angular momentum in pseudopotentials (lmaxx) =  4

     IMPORTANT: XC functional enforced from input :
     Exchange-correlation= PZ
                           (   1   1   0   0   0   0   0)
     Any further DFT definition will be discarded
     Please, verify this is what you really want


     R & G space division:  proc/nbgrp/npool/nimage =       2
     Subspace diagonalization in iterative solution of the eigenvalue problem:
     a serial algorithm will be used


     Parallelization info
     --------------------
     sticks:   dense  smooth     PW     G-vecs:    dense   smooth      PW
     Min         156     156     54                 1859     1859     373
     Max         157     157     55                 1860     1860     376
     Sum         313     313    109                 3719     3719     749

     Using Slab Decomposition



     bravais-lattice index     =            2
     lattice parameter (alat)  =       7.6000  a.u.
     unit-cell volume          =     109.7440 (a.u.)^3
     number of atoms/cell      =            1
     number of atomic types    =            1
     number of electrons       =         3.00
     number of Kohn-Sham states=            6
     kinetic-energy cutoff     =      40.0000  Ry
     charge density cutoff     =     160.0000  Ry
     scf convergence threshold =      1.0E-08
     mixing beta               =       0.7000
     number of iterations used =            8  plain     mixing
     energy convergence thresh.=      1.0E-04
     force convergence thresh. =      1.0E-03
     press convergence thresh. =      5.0E-01
     Exchange-correlation= PZ
                           (   1   1   0   0   0   0   0)
     nstep                     =           50


     celldm(1)=   7.600000  celldm(2)=   0.000000  celldm(3)=   0.000000
     celldm(4)=   0.000000  celldm(5)=   0.000000  celldm(6)=   0.000000

     crystal axes: (cart. coord. in units of alat)
               a(1) = (  -0.500000   0.000000   0.500000 )  
               a(2) = (   0.000000   0.500000   0.500000 )  
               a(3) = (  -0.500000   0.500000   0.000000 )  

     reciprocal axes: (cart. coord. in units 2 pi/alat)
               b(1) = ( -1.000000 -1.000000  1.000000 )  
               b(2) = (  1.000000  1.000000  1.000000 )  
               b(3) = ( -1.000000  1.000000 -1.000000 )  


     PseudoPot. # 1 for Al read from file:
     /Users/zhy/Aluminum-from-First-Principles/Al.pz-vbc.UPF
     MD5 check sum: f06ceae8da0fe5c02c98e3688433298c
     Pseudo is Norm-conserving, Zval =  3.0
     Generated by new atomic code, or converted to UPF format
     Using radial grid of  171 points,  2 beta functions with: 
                l(1) =   0
                l(2) =   1

     atomic species   valence    mass     pseudopotential
     Al                3.00    26.98200     Al( 1.00)

     48 Sym. Ops., with inversion, found



   Cartesian axes

     site n.     atom                  positions (alat units)
         1        Al     tau(   1) = (   0.0000000   0.0000000   0.0000000  )

     number of k points=   256  Methfessel-Paxton smearing, width (Ry)=  0.0100

     Number of k-points >= 100: set verbosity='high' to print them.

     Dense  grid:     3719 G-vectors     FFT dimensions: (  24,  24,  24)

     Estimated max dynamical RAM per process >       7.03 MB

     Estimated total dynamical RAM >      14.07 MB

     Initial potential from superposition of free atoms

     starting charge       2.9979, renormalised to       3.0000

     negative rho (up, down):  5.429E-05 0.000E+00
     Starting wfcs are    4 randomized atomic wfcs +    2 random wfcs

     total cpu time spent up to now is        0.3 secs

     Self-consistent Calculation

     iteration #  1     ecut=    40.00 Ry     beta= 0.70
     Davidson diagonalization with overlap
     ethr =  1.00E-02,  avg # of iterations =  5.7

     Threshold (ethr) on eigenvalues was too large:
     Diagonalizing with lowered threshold

     Davidson diagonalization with overlap
     ethr =  1.89E-04,  avg # of iterations =  2.0

     negative rho (up, down):  1.405E-05 0.000E+00

     total cpu time spent up to now is        1.4 secs

     total energy              =      -4.18973937 Ry
     estimated scf accuracy    <       0.00566559 Ry

     iteration #  2     ecut=    40.00 Ry     beta= 0.70
     Davidson diagonalization with overlap
     ethr =  1.89E-04,  avg # of iterations =  1.0

     total cpu time spent up to now is        1.8 secs

     total energy              =      -4.18977233 Ry
     estimated scf accuracy    <       0.00042637 Ry

     iteration #  3     ecut=    40.00 Ry     beta= 0.70
     Davidson diagonalization with overlap
     ethr =  1.42E-05,  avg # of iterations =  2.0

     total cpu time spent up to now is        2.1 secs

     total energy              =      -4.18977596 Ry
     estimated scf accuracy    <       0.00000035 Ry

     iteration #  4     ecut=    40.00 Ry     beta= 0.70
     Davidson diagonalization with overlap
     ethr =  1.16E-08,  avg # of iterations =  2.2

     total cpu time spent up to now is        2.5 secs

     End of self-consistent calculation

     Number of k-points >= 100: set verbosity='high' to print the bands.

     the Fermi energy is     7.9238 ev

!    total energy              =      -4.18977599 Ry
     estimated scf accuracy    <          5.3E-09 Ry
     smearing contrib. (-TS)   =      -0.00001450 Ry
     internal energy E=F+TS    =      -4.18976149 Ry

     The total energy is F=E-TS. E is the sum of the following terms:
     one-electron contribution =       2.84557925 Ry
     hartree contribution      =       0.00905790 Ry
     xc contribution           =      -1.61495665 Ry
     ewald contribution        =      -5.42944199 Ry

     convergence has been achieved in   4 iterations

     Forces acting on atoms (cartesian axes, Ry/au):

     atom    1 type  1   force =     0.00000000    0.00000000    0.00000000

     Total force =     0.000000     Total SCF correction =     0.000000


     Computing stress (Cartesian axis) and pressure

          total   stress  (Ry/bohr**3)                   (kbar)     P=      -37.11
  -0.00025230   0.00000000   0.00000000          -37.11        0.00        0.00
   0.00000000  -0.00025230  -0.00000000            0.00      -37.11       -0.00
   0.00000000  -0.00000000  -0.00025230            0.00       -0.00      -37.11


     BFGS Geometry Optimization
     Energy error            =      5.2E-04 Ry
     Gradient error          =      0.0E+00 Ry/Bohr
     Cell gradient error     =      3.7E+01 kbar

     number of scf cycles    =   1
     number of bfgs steps    =   0

     enthalpy           new  =      -4.1897759865 Ry

     new trust radius        =       0.0132153363 bohr
     new conv_thr            =       0.0000000100 Ry

     new unit-cell volume =    107.68044 a.u.^3 (    15.95659 Ang^3 )
     density =      2.80791 g/cm^3

CELL_PARAMETERS (alat=  7.60000000)
  -0.496846246  -0.000000000   0.496846246
   0.000000000   0.496846246   0.496846246
  -0.496846246   0.496846246  -0.000000000

ATOMIC_POSITIONS (alat)
Al               0.0000000000        0.0000000000        0.0000000000



     Writing config-only to output data dir /Users/zhy/Aluminum-from-First-Principles/lda-a3-relax/qe-out/aluminum_lda_relax.save/ :
     XML data file
     NEW-OLD atomic charge density approx. for the potential
     New effective cutoffs (rho, wfc):  160.59   40.50

     total cpu time spent up to now is        2.6 secs

     Self-consistent Calculation

     iteration #  1     ecut=    40.00 Ry     beta= 0.70
     Davidson diagonalization with overlap
     ethr =  1.00E-06,  avg # of iterations =  3.0

     Threshold (ethr) on eigenvalues was too large:
     Diagonalizing with lowered threshold

     Davidson diagonalization with overlap
     ethr =  3.93E-08,  avg # of iterations =  1.0

     total cpu time spent up to now is        3.4 secs

     total energy              =      -4.19020355 Ry
     estimated scf accuracy    <       0.00000118 Ry

     iteration #  2     ecut=    40.00 Ry     beta= 0.70
     Davidson diagonalization with overlap
     ethr =  3.93E-08,  avg # of iterations =  1.0

     total cpu time spent up to now is        3.7 secs

     total energy              =      -4.19020752 Ry
     estimated scf accuracy    <       0.00000011 Ry

     iteration #  3     ecut=    40.00 Ry     beta= 0.70
     Davidson diagonalization with overlap
     ethr =  3.51E-09,  avg # of iterations =  1.0

     total cpu time spent up to now is        4.0 secs

     End of self-consistent calculation

     Number of k-points >= 100: set verbosity='high' to print the bands.

     the Fermi energy is     8.1194 ev

!    total energy              =      -4.19020752 Ry
     estimated scf accuracy    <          1.1E-11 Ry
     smearing contrib. (-TS)   =      -0.00001871 Ry
     internal energy E=F+TS    =      -4.19018881 Ry

     The total energy is F=E-TS. E is the sum of the following terms:
     one-electron contribution =       2.88873189 Ry
     hartree contribution      =       0.00934692 Ry
     xc contribution           =      -1.62436200 Ry
     ewald contribution        =      -5.46390561 Ry

     convergence has been achieved in   3 iterations

     Forces acting on atoms (cartesian axes, Ry/au):

     atom    1 type  1   force =     0.00000000    0.00000000    0.00000000

     Total force =     0.000000     Total SCF correction =     0.000000


     Computing stress (Cartesian axis) and pressure

          total   stress  (Ry/bohr**3)                   (kbar)     P=      -24.17
  -0.00016431   0.00000000   0.00000000          -24.17        0.00        0.00
   0.00000000  -0.00016431  -0.00000000            0.00      -24.17       -0.00
   0.00000000  -0.00000000  -0.00016431            0.00       -0.00      -24.17

     Energy error            =      4.3E-04 Ry
     Gradient error          =      0.0E+00 Ry/Bohr
     Cell gradient error     =      2.4E+01 kbar

     number of scf cycles    =   2
     number of bfgs steps    =   1

     enthalpy           old  =      -4.1897759865 Ry
     enthalpy           new  =      -4.1902075187 Ry

     CASE: enthalpy          _new < enthalpy          _old

     new trust radius        =       0.0197603887 bohr
     new conv_thr            =            1.0E-10 Ry

     new unit-cell volume =    104.63385 a.u.^3 (    15.50514 Ang^3 )
     density =      2.88967 g/cm^3

CELL_PARAMETERS (alat=  7.60000000)
  -0.492115615  -0.000000000   0.492115615
   0.000000000   0.492115615   0.492115615
  -0.492115615   0.492115615  -0.000000000

ATOMIC_POSITIONS (alat)
Al               0.0000000000        0.0000000000        0.0000000000



     Writing config-only to output data dir /Users/zhy/Aluminum-from-First-Principles/lda-a3-relax/qe-out/aluminum_lda_relax.save/ :
     XML data file
     NEW-OLD atomic charge density approx. for the potential
     New effective cutoffs (rho, wfc):  163.69   41.28

     total cpu time spent up to now is        4.1 secs

     Self-consistent Calculation

     iteration #  1     ecut=    40.00 Ry     beta= 0.70
     Davidson diagonalization with overlap
     c_bands:  1 eigenvalues not converged
     ethr =  1.00E-06,  avg # of iterations =  3.4

     Threshold (ethr) on eigenvalues was too large:
     Diagonalizing with lowered threshold

     Davidson diagonalization with overlap
     ethr =  9.76E-08,  avg # of iterations =  1.0

     total cpu time spent up to now is        5.0 secs

     total energy              =      -4.19047626 Ry
     estimated scf accuracy    <       0.00000293 Ry

     iteration #  2     ecut=    40.00 Ry     beta= 0.70
     Davidson diagonalization with overlap
     ethr =  9.76E-08,  avg # of iterations =  1.0

     total cpu time spent up to now is        5.3 secs

     total energy              =      -4.19048699 Ry
     estimated scf accuracy    <       0.00000026 Ry

     iteration #  3     ecut=    40.00 Ry     beta= 0.70
     Davidson diagonalization with overlap
     ethr =  8.69E-09,  avg # of iterations =  1.0

     total cpu time spent up to now is        5.6 secs

     End of self-consistent calculation

     Number of k-points >= 100: set verbosity='high' to print the bands.

     the Fermi energy is     8.4172 ev

!    total energy              =      -4.19048699 Ry
     estimated scf accuracy    <          2.9E-11 Ry
     smearing contrib. (-TS)   =      -0.00002703 Ry
     internal energy E=F+TS    =      -4.19045996 Ry

     The total energy is F=E-TS. E is the sum of the following terms:
     one-electron contribution =       2.95485202 Ry
     hartree contribution      =       0.00987058 Ry
     xc contribution           =      -1.63875329 Ry
     ewald contribution        =      -5.51642927 Ry

     convergence has been achieved in   3 iterations

     Forces acting on atoms (cartesian axes, Ry/au):

     atom    1 type  1   force =     0.00000000    0.00000000    0.00000000

     Total force =     0.000000     Total SCF correction =     0.000000


     Computing stress (Cartesian axis) and pressure

          total   stress  (Ry/bohr**3)                   (kbar)     P=       -2.22
  -0.00001511   0.00000000   0.00000000           -2.22        0.00        0.00
   0.00000000  -0.00001511  -0.00000000            0.00       -2.22       -0.00
   0.00000000  -0.00000000  -0.00001511            0.00       -0.00       -2.22

     Energy error            =      2.8E-04 Ry
     Gradient error          =      0.0E+00 Ry/Bohr
     Cell gradient error     =      2.2E+00 kbar

     number of scf cycles    =   3
     number of bfgs steps    =   2

     enthalpy           old  =      -4.1902075187 Ry
     enthalpy           new  =      -4.1904869933 Ry

     CASE: enthalpy          _new < enthalpy          _old

     new trust radius        =       0.0019495319 bohr
     new conv_thr            =            1.0E-10 Ry

     new unit-cell volume =    104.33501 a.u.^3 (    15.46085 Ang^3 )
     density =      2.89794 g/cm^3

CELL_PARAMETERS (alat=  7.60000000)
  -0.491646659  -0.000000000   0.491646659
   0.000000000   0.491646659   0.491646659
  -0.491646659   0.491646659  -0.000000000

ATOMIC_POSITIONS (alat)
Al               0.0000000000        0.0000000000        0.0000000000



     Writing config-only to output data dir /Users/zhy/Aluminum-from-First-Principles/lda-a3-relax/qe-out/aluminum_lda_relax.save/ :
     XML data file
     NEW-OLD atomic charge density approx. for the potential
     New effective cutoffs (rho, wfc):  164.00   41.36

     total cpu time spent up to now is        5.7 secs

     Self-consistent Calculation

     iteration #  1     ecut=    40.00 Ry     beta= 0.70
     Davidson diagonalization with overlap
     ethr =  1.00E-06,  avg # of iterations =  2.0

     Threshold (ethr) on eigenvalues was too large:
     Diagonalizing with lowered threshold

     Davidson diagonalization with overlap
     ethr =  9.87E-10,  avg # of iterations =  1.9

     total cpu time spent up to now is        6.4 secs

     total energy              =      -4.19048899 Ry
     estimated scf accuracy    <       0.00000003 Ry

     iteration #  2     ecut=    40.00 Ry     beta= 0.70
     Davidson diagonalization with overlap
     ethr =  9.91E-10,  avg # of iterations =  1.0

     total cpu time spent up to now is        6.7 secs

     total energy              =      -4.19048912 Ry
     estimated scf accuracy    <          2.7E-09 Ry

     iteration #  3     ecut=    40.00 Ry     beta= 0.70
     Davidson diagonalization with overlap
     ethr =  8.87E-11,  avg # of iterations =  1.0

     total cpu time spent up to now is        7.1 secs

     End of self-consistent calculation

     Number of k-points >= 100: set verbosity='high' to print the bands.

     the Fermi energy is     8.4470 ev

!    total energy              =      -4.19048912 Ry
     estimated scf accuracy    <          3.3E-13 Ry
     smearing contrib. (-TS)   =      -0.00002773 Ry
     internal energy E=F+TS    =      -4.19046139 Ry

     The total energy is F=E-TS. E is the sum of the following terms:
     one-electron contribution =       2.96150013 Ry
     hartree contribution      =       0.00992814 Ry
     xc contribution           =      -1.64019856 Ry
     ewald contribution        =      -5.52169109 Ry

     convergence has been achieved in   3 iterations

     Forces acting on atoms (cartesian axes, Ry/au):

     atom    1 type  1   force =     0.00000000    0.00000000    0.00000000

     Total force =     0.000000     Total SCF correction =     0.000000


     Computing stress (Cartesian axis) and pressure

          total   stress  (Ry/bohr**3)                   (kbar)     P=        0.13
   0.00000091   0.00000000   0.00000000            0.13        0.00        0.00
   0.00000000   0.00000091  -0.00000000            0.00        0.13       -0.00
   0.00000000  -0.00000000   0.00000091            0.00       -0.00        0.13

     Energy error            =      2.1E-06 Ry
     Gradient error          =      0.0E+00 Ry/Bohr
     Cell gradient error     =      1.3E-01 kbar

     bfgs converged in   4 scf cycles and   3 bfgs steps
     (criteria: energy <  1.0E-04 Ry, force <  1.0E-03 Ry/Bohr, cell <  5.0E-01 kbar)

     End of BFGS Geometry Optimization

     Final enthalpy           =      -4.1904891174 Ry

     File /Users/zhy/Aluminum-from-First-Principles/lda-a3-relax/qe-out/aluminum_lda_relax.bfgs deleted, as requested
Begin final coordinates
     new unit-cell volume =    104.33501 a.u.^3 (    15.46085 Ang^3 )
     density =      2.89794 g/cm^3

CELL_PARAMETERS (alat=  7.60000000)
  -0.491646659  -0.000000000   0.491646659
   0.000000000   0.491646659   0.491646659
  -0.491646659   0.491646659  -0.000000000

ATOMIC_POSITIONS (alat)
Al               0.0000000000        0.0000000000        0.0000000000
End final coordinates



     Writing config-only to output data dir /Users/zhy/Aluminum-from-First-Principles/lda-a3-relax/qe-out/aluminum_lda_relax.save/ :
     XML data file

     Final scf calculation at the relaxed structure.
     The G-vectors are recalculated for the final unit cell
     Results may differ from those at the preceding step.

     Parallelization info
     --------------------
     sticks:   dense  smooth     PW     G-vecs:    dense   smooth      PW
     Min         156     156     54                 1763     1763     362
     Max         157     157     55                 1764     1764     363
     Sum         313     313    109                 3527     3527     725

     Using Slab Decomposition



     bravais-lattice index     =            2
     lattice parameter (alat)  =       7.6000  a.u.
     unit-cell volume          =     104.3350 (a.u.)^3
     number of atoms/cell      =            1
     number of atomic types    =            1
     number of electrons       =         3.00
     number of Kohn-Sham states=            6
     kinetic-energy cutoff     =      40.0000  Ry
     charge density cutoff     =     160.0000  Ry
     scf convergence threshold =      1.0E-10
     mixing beta               =       0.7000
     number of iterations used =            8  plain     mixing
     press convergence thresh. =      5.0E-01
     Exchange-correlation= PZ
                           (   1   1   0   0   0   0   0)

     celldm(1)=   7.600000  celldm(2)=   0.000000  celldm(3)=   0.000000
     celldm(4)=   0.000000  celldm(5)=   0.000000  celldm(6)=   0.000000

     crystal axes: (cart. coord. in units of alat)
               a(1) = (  -0.491647  -0.000000   0.491647 )  
               a(2) = (   0.000000   0.491647   0.491647 )  
               a(3) = (  -0.491647   0.491647  -0.000000 )  

     reciprocal axes: (cart. coord. in units 2 pi/alat)
               b(1) = ( -1.016991 -1.016991  1.016991 )  
               b(2) = (  1.016991  1.016991  1.016991 )  
               b(3) = ( -1.016991  1.016991 -1.016991 )  


     PseudoPot. # 1 for Al read from file:
     /Users/zhy/Aluminum-from-First-Principles/Al.pz-vbc.UPF
     MD5 check sum: f06ceae8da0fe5c02c98e3688433298c
     Pseudo is Norm-conserving, Zval =  3.0
     Generated by new atomic code, or converted to UPF format
     Using radial grid of  171 points,  2 beta functions with: 
                l(1) =   0
                l(2) =   1

     atomic species   valence    mass     pseudopotential
     Al                3.00    26.98200     Al( 1.00)

     48 Sym. Ops., with inversion, found



   Cartesian axes

     site n.     atom                  positions (alat units)
         1        Al     tau(   1) = (   0.0000000   0.0000000   0.0000000  )

     number of k points=   256  Methfessel-Paxton smearing, width (Ry)=  0.0100

     Number of k-points >= 100: set verbosity='high' to print them.

     Dense  grid:     3527 G-vectors     FFT dimensions: (  24,  24,  24)

     Estimated max dynamical RAM per process >       6.75 MB

     Estimated total dynamical RAM >      13.49 MB

     Initial potential from superposition of free atoms

     starting charge       2.9979, renormalised to       3.0000

     negative rho (up, down):  2.881E-05 0.000E+00
     Starting wfcs are    4 randomized atomic wfcs +    2 random wfcs

     total cpu time spent up to now is        7.3 secs

     Self-consistent Calculation

     iteration #  1     ecut=    40.00 Ry     beta= 0.70
     Davidson diagonalization with overlap
     c_bands:  2 eigenvalues not converged
     c_bands:  1 eigenvalues not converged
     c_bands:  1 eigenvalues not converged
     c_bands:  1 eigenvalues not converged
     c_bands:  1 eigenvalues not converged
     c_bands:  1 eigenvalues not converged
     c_bands:  1 eigenvalues not converged
     c_bands:  1 eigenvalues not converged
     c_bands:  1 eigenvalues not converged
     c_bands:  1 eigenvalues not converged
     c_bands:  1 eigenvalues not converged
     c_bands:  1 eigenvalues not converged
     c_bands:  1 eigenvalues not converged
     c_bands:  1 eigenvalues not converged
     c_bands:  1 eigenvalues not converged
     c_bands:  1 eigenvalues not converged
     c_bands:  1 eigenvalues not converged
     c_bands:  1 eigenvalues not converged
     c_bands:  1 eigenvalues not converged
     c_bands:  1 eigenvalues not converged
     c_bands:  1 eigenvalues not converged
     c_bands:  1 eigenvalues not converged
     c_bands:  1 eigenvalues not converged
     c_bands:  1 eigenvalues not converged
     c_bands:  1 eigenvalues not converged
     c_bands:  1 eigenvalues not converged
     c_bands:  1 eigenvalues not converged
     c_bands:  1 eigenvalues not converged
     c_bands:  1 eigenvalues not converged
     c_bands:  1 eigenvalues not converged
     ethr =  1.00E-06,  avg # of iterations = 13.7

     negative rho (up, down):  6.599E-06 0.000E+00

     total cpu time spent up to now is        8.7 secs

     total energy              =      -4.19043402 Ry
     estimated scf accuracy    <       0.00574452 Ry

     iteration #  2     ecut=    40.00 Ry     beta= 0.70
     Davidson diagonalization with overlap
     ethr =  1.91E-04,  avg # of iterations =  1.0

     total cpu time spent up to now is        9.0 secs

     total energy              =      -4.19046767 Ry
     estimated scf accuracy    <       0.00044544 Ry

     iteration #  3     ecut=    40.00 Ry     beta= 0.70
     Davidson diagonalization with overlap
     ethr =  1.48E-05,  avg # of iterations =  1.0

     total cpu time spent up to now is        9.3 secs

     total energy              =      -4.19047094 Ry
     estimated scf accuracy    <       0.00000031 Ry

     iteration #  4     ecut=    40.00 Ry     beta= 0.70
     Davidson diagonalization with overlap
     ethr =  1.04E-08,  avg # of iterations =  1.4

     total cpu time spent up to now is        9.7 secs

     total energy              =      -4.19047097 Ry
     estimated scf accuracy    <          4.8E-09 Ry

     iteration #  5     ecut=    40.00 Ry     beta= 0.70
     Davidson diagonalization with overlap
     ethr =  1.59E-10,  avg # of iterations =  1.4

     total cpu time spent up to now is       10.0 secs

     End of self-consistent calculation

     Number of k-points >= 100: set verbosity='high' to print the bands.

     the Fermi energy is     8.4471 ev

!    total energy              =      -4.19047097 Ry
     estimated scf accuracy    <          1.5E-11 Ry
     smearing contrib. (-TS)   =      -0.00002775 Ry
     internal energy E=F+TS    =      -4.19044322 Ry

     The total energy is F=E-TS. E is the sum of the following terms:
     one-electron contribution =       2.96151743 Ry
     hartree contribution      =       0.00992886 Ry
     xc contribution           =      -1.64019838 Ry
     ewald contribution        =      -5.52169113 Ry

     convergence has been achieved in   5 iterations

     Forces acting on atoms (cartesian axes, Ry/au):

     atom    1 type  1   force =     0.00000000    0.00000000    0.00000000

     Total force =     0.000000     Total SCF correction =     0.000000


     Computing stress (Cartesian axis) and pressure

          total   stress  (Ry/bohr**3)                   (kbar)     P=        0.01
   0.00000010   0.00000000   0.00000000            0.01        0.00        0.00
   0.00000000   0.00000010   0.00000000            0.00        0.01        0.00
   0.00000000  -0.00000000   0.00000010            0.00       -0.00        0.01


     Writing all to output data dir /Users/zhy/Aluminum-from-First-Principles/lda-a3-relax/qe-out/aluminum_lda_relax.save/ :
     XML data file, charge density, pseudopotentials, collected wavefunctions

     init_run     :      0.37s CPU      0.40s WALL (       2 calls)
     electrons    :      8.96s CPU      9.27s WALL (       5 calls)
     update_pot   :      0.00s CPU      0.00s WALL (       3 calls)
     forces       :      0.04s CPU      0.04s WALL (       5 calls)
     stress       :      0.27s CPU      0.28s WALL (       5 calls)

     Called by init_run:
     wfcinit      :      0.26s CPU      0.28s WALL (       2 calls)
     potinit      :      0.00s CPU      0.00s WALL (       2 calls)
     hinit0       :      0.10s CPU      0.10s WALL (       2 calls)

     Called by electrons:
     c_bands      :      7.57s CPU      7.83s WALL (      22 calls)
     sum_band     :      1.39s CPU      1.43s WALL (      22 calls)
     v_of_rho     :      0.00s CPU      0.00s WALL (      23 calls)
     mix_rho      :      0.00s CPU      0.00s WALL (      22 calls)

     Called by c_bands:
     init_us_2    :      0.17s CPU      0.18s WALL (   14336 calls)
     cegterg      :      7.45s CPU      7.69s WALL (    5632 calls)

     Called by *egterg:
     cdiaghg      :      0.36s CPU      0.37s WALL (   16605 calls)
     h_psi        :      6.89s CPU      7.10s WALL (   18909 calls)
     g_psi        :      0.02s CPU      0.02s WALL (   12765 calls)

     Called by h_psi:
     h_psi:calbec :      0.06s CPU      0.07s WALL (   18909 calls)
     vloc_psi     :      6.76s CPU      6.94s WALL (   18909 calls)
     add_vuspsi   :      0.04s CPU      0.04s WALL (   18909 calls)

     General routines
     calbec       :      0.12s CPU      0.13s WALL (   40669 calls)
     fft          :      0.10s CPU      0.10s WALL (      96 calls)
     ffts         :      0.00s CPU      0.00s WALL (      22 calls)
     fftw         :      7.19s CPU      7.35s WALL (  218036 calls)

     Parallel routines

     PWSCF        :      9.73s CPU     10.13s WALL


   This run was terminated on:   1:38:23  26Sep2026            

=------------------------------------------------------------------------------=
   JOB DONE.
=------------------------------------------------------------------------------=
Note: The following floating-point exceptions are signalling: IEEE_INVALID_FLAG IEEE_DIVIDE_BY_ZERO IEEE_UNDERFLOW_FLAG
Note: The following floating-point exceptions are signalling: IEEE_UNDERFLOW_FLAG
