
     Program PWSCF v.7.6 starts on 23Sep2026 at  1:12:56 

     This program is part of the open-source Quantum ESPRESSO suite
     for quantum simulation of materials; please cite
         "P. Giannozzi et al., J. Phys.:Condens. Matter 21 395502 (2009);
         "P. Giannozzi et al., J. Phys.:Condens. Matter 29 465901 (2017);
         "P. Giannozzi et al., J. Chem. Phys. 152 154105 (2020);
          URL http://www.quantum-espresso.org", 
     in publications or presentations arising from this work. More details at
     http://www.quantum-espresso.org/quote

     Parallel version (MPI), running on     2 processors

     MPI processes distributed on     1 nodes
     0 MiB available memory on the printing compute node when the environment starts

     Reading input from Al.scf.inp

     Current dimensions of program PWSCF are:
     Max number of different atomic species (ntypx) = 10
     Max number of k-points (npk) =  40000
     Max angular momentum in pseudopotentials (lmaxx) =  4

     R & G space division:  proc/nbgrp/npool/nimage =       2
     Subspace diagonalization in iterative solution of the eigenvalue problem:
     a serial algorithm will be used


     Parallelization info
     --------------------
     sticks:   dense  smooth     PW     G-vecs:    dense   smooth      PW
     Min         561     279     84                12346     4327     735
     Max         562     280     85                12347     4330     736
     Sum        1123     559    169                24693     8657    1471

     Using Slab Decomposition



     bravais-lattice index     =            2
     lattice parameter (alat)  =       9.0000  a.u.
     unit-cell volume          =     182.2500 (a.u.)^3
     number of atoms/cell      =            1
     number of atomic types    =            1
     number of electrons       =         3.00
     number of Kohn-Sham states=            6
     kinetic-energy cutoff     =      50.0000  Ry
     charge density cutoff     =     400.0000  Ry
     scf convergence threshold =      1.0E-08
     mixing beta               =       0.7000
     number of iterations used =            8  plain     mixing
     Exchange-correlation= SLA  PW   PBE  PBE
                           (   1   4   3   4   0   0   0)

     celldm(1)=   9.000000  celldm(2)=   0.000000  celldm(3)=   0.000000
     celldm(4)=   0.000000  celldm(5)=   0.000000  celldm(6)=   0.000000

     crystal axes: (cart. coord. in units of alat)
               a(1) = (  -0.500000   0.000000   0.500000 )  
               a(2) = (   0.000000   0.500000   0.500000 )  
               a(3) = (  -0.500000   0.500000   0.000000 )  

     reciprocal axes: (cart. coord. in units 2 pi/alat)
               b(1) = ( -1.000000 -1.000000  1.000000 )  
               b(2) = (  1.000000  1.000000  1.000000 )  
               b(3) = ( -1.000000  1.000000 -1.000000 )  


     PseudoPot. # 1 for Al read from file:
     /Users/zhy/Aluminum-from-First-Principles/Al.pbe-n-van.UPF
     MD5 check sum: cbc97ad259b400557db688b98a6ada97
     Pseudo is Ultrasoft + core correction, Zval =  3.0
     Generated by new atomic code, or converted to UPF format
     Using radial grid of  893 points,  2 beta functions with: 
                l(1) =   0
                l(2) =   1
     Q(r) pseudized with  8 coefficients,  rinner =    0.900   0.900   0.900


     atomic species   valence    mass     pseudopotential
     Al                3.00    26.98200     Al( 1.00)

     48 Sym. Ops., with inversion, found



   Cartesian axes

     site n.     atom                  positions (alat units)
         1        Al     tau(   1) = (   0.0000000   0.0000000   0.0000000  )

     number of k points=    47  Methfessel-Paxton smearing, width (Ry)=  0.0500
                       cart. coord. in units 2pi/alat
        k(    1) = (   0.0000000   0.0000000   0.0000000), wk =   0.0020000
        k(    2) = (  -0.1000000   0.1000000  -0.1000000), wk =   0.0160000
        k(    3) = (  -0.2000000   0.2000000  -0.2000000), wk =   0.0160000
        k(    4) = (  -0.3000000   0.3000000  -0.3000000), wk =   0.0160000
        k(    5) = (  -0.4000000   0.4000000  -0.4000000), wk =   0.0160000
        k(    6) = (   0.5000000  -0.5000000   0.5000000), wk =   0.0080000
        k(    7) = (   0.0000000   0.2000000   0.0000000), wk =   0.0120000
        k(    8) = (  -0.1000000   0.3000000  -0.1000000), wk =   0.0480000
        k(    9) = (  -0.2000000   0.4000000  -0.2000000), wk =   0.0480000
        k(   10) = (  -0.3000000   0.5000000  -0.3000000), wk =   0.0480000
        k(   11) = (   0.6000000  -0.4000000   0.6000000), wk =   0.0480000
        k(   12) = (   0.5000000  -0.3000000   0.5000000), wk =   0.0480000
        k(   13) = (   0.4000000  -0.2000000   0.4000000), wk =   0.0480000
        k(   14) = (   0.3000000  -0.1000000   0.3000000), wk =   0.0480000
        k(   15) = (   0.2000000   0.0000000   0.2000000), wk =   0.0240000
        k(   16) = (   0.0000000   0.4000000   0.0000000), wk =   0.0120000
        k(   17) = (  -0.1000000   0.5000000  -0.1000000), wk =   0.0480000
        k(   18) = (  -0.2000000   0.6000000  -0.2000000), wk =   0.0480000
        k(   19) = (   0.7000000  -0.3000000   0.7000000), wk =   0.0480000
        k(   20) = (   0.6000000  -0.2000000   0.6000000), wk =   0.0480000
        k(   21) = (   0.5000000  -0.1000000   0.5000000), wk =   0.0480000
        k(   22) = (   0.4000000   0.0000000   0.4000000), wk =   0.0240000
        k(   23) = (   0.0000000   0.6000000   0.0000000), wk =   0.0120000
        k(   24) = (  -0.1000000   0.7000000  -0.1000000), wk =   0.0480000
        k(   25) = (   0.8000000  -0.2000000   0.8000000), wk =   0.0480000
        k(   26) = (   0.7000000  -0.1000000   0.7000000), wk =   0.0480000
        k(   27) = (   0.6000000   0.0000000   0.6000000), wk =   0.0240000
        k(   28) = (   0.0000000   0.8000000   0.0000000), wk =   0.0120000
        k(   29) = (   0.9000000  -0.1000000   0.9000000), wk =   0.0480000
        k(   30) = (   0.8000000   0.0000000   0.8000000), wk =   0.0240000
        k(   31) = (   0.0000000  -1.0000000   0.0000000), wk =   0.0060000
        k(   32) = (  -0.2000000   0.4000000   0.0000000), wk =   0.0480000
        k(   33) = (  -0.3000000   0.5000000  -0.1000000), wk =   0.0960000
        k(   34) = (   0.6000000  -0.4000000   0.8000000), wk =   0.0960000
        k(   35) = (   0.5000000  -0.3000000   0.7000000), wk =   0.0480000
        k(   36) = (  -0.2000000   0.6000000   0.0000000), wk =   0.0480000
        k(   37) = (   0.7000000  -0.3000000   0.9000000), wk =   0.0960000
        k(   38) = (   0.6000000  -0.2000000   0.8000000), wk =   0.0960000
        k(   39) = (   0.5000000  -0.1000000   0.7000000), wk =   0.0960000
        k(   40) = (   0.4000000   0.0000000   0.6000000), wk =   0.0480000
        k(   41) = (   0.8000000  -0.2000000   1.0000000), wk =   0.0480000
        k(   42) = (   0.7000000  -0.1000000   0.9000000), wk =   0.0960000
        k(   43) = (   0.6000000   0.0000000   0.8000000), wk =   0.0480000
        k(   44) = (  -0.2000000  -1.0000000   0.0000000), wk =   0.0240000
        k(   45) = (   0.6000000  -0.2000000   1.0000000), wk =   0.0480000
        k(   46) = (   0.5000000  -0.1000000   0.9000000), wk =   0.0480000
        k(   47) = (  -0.4000000  -1.0000000   0.0000000), wk =   0.0240000

     Dense  grid:    24693 G-vectors     FFT dimensions: (  45,  45,  45)

     Smooth grid:     8657 G-vectors     FFT dimensions: (  30,  30,  30)

     Estimated max dynamical RAM per process >      15.35 MB

     Estimated total dynamical RAM >      30.71 MB

     Initial potential from superposition of free atoms

     starting charge       2.9975, renormalised to       3.0000
     Starting wfcs are    4 randomized atomic wfcs +    2 random wfcs

     total cpu time spent up to now is        0.3 secs

     Self-consistent Calculation

     iteration #  1     ecut=    50.00 Ry     beta= 0.70
     Davidson diagonalization with overlap
     ethr =  1.00E-02,  avg # of iterations =  5.3

     Threshold (ethr) on eigenvalues was too large:
     Diagonalizing with lowered threshold

     Davidson diagonalization with overlap
     ethr =  1.76E-04,  avg # of iterations =  3.1

     total cpu time spent up to now is        0.7 secs

     total energy              =     -12.41969938 Ry
     estimated scf accuracy    <       0.00511097 Ry

     iteration #  2     ecut=    50.00 Ry     beta= 0.70
     Davidson diagonalization with overlap
     ethr =  1.70E-04,  avg # of iterations =  1.0

     total cpu time spent up to now is        0.9 secs

     total energy              =     -12.41982380 Ry
     estimated scf accuracy    <       0.00024017 Ry

     iteration #  3     ecut=    50.00 Ry     beta= 0.70
     Davidson diagonalization with overlap
     ethr =  8.01E-06,  avg # of iterations =  3.6

     total cpu time spent up to now is        1.1 secs

     total energy              =     -12.41985812 Ry
     estimated scf accuracy    <       0.00000112 Ry

     iteration #  4     ecut=    50.00 Ry     beta= 0.70
     Davidson diagonalization with overlap
     ethr =  3.73E-08,  avg # of iterations =  3.0

     total cpu time spent up to now is        1.2 secs

     total energy              =     -12.41985955 Ry
     estimated scf accuracy    <       0.00000006 Ry

     iteration #  5     ecut=    50.00 Ry     beta= 0.70
     Davidson diagonalization with overlap
     ethr =  2.03E-09,  avg # of iterations =  1.4

     total cpu time spent up to now is        1.4 secs

     End of self-consistent calculation

          k = 0.0000 0.0000 0.0000 (  1067 PWs)   bands (ev):

    -4.4983  12.4142  12.4142  12.4142  13.9177  13.9177

          k =-0.1000 0.1000-0.1000 (  1085 PWs)   bands (ev):

    -4.3042  10.3865  11.9482  11.9482  14.2013  14.5923

          k =-0.2000 0.2000-0.2000 (  1089 PWs)   bands (ev):

    -3.7239   7.5425  11.3597  11.3597  13.9366  15.0900

          k =-0.3000 0.3000-0.3000 (  1089 PWs)   bands (ev):

    -2.7643   4.8599  10.9957  10.9957  13.6926  14.2401

          k =-0.4000 0.4000-0.4000 (  1095 PWs)   bands (ev):

    -1.4488   2.4877  10.8505  10.8505  13.4448  13.4448

          k = 0.5000-0.5000 0.5000 (  1068 PWs)   bands (ev):

    -0.1821   0.8660  10.8268  10.8268  13.1417  13.6179

          k = 0.0000 0.2000 0.0000 (  1078 PWs)   bands (ev):

    -4.2395  11.0409  11.0409  11.6589  12.6830  15.6097

          k =-0.1000 0.3000-0.1000 (  1094 PWs)   bands (ev):

    -3.7879   8.6152  10.3293  11.2193  12.9908  14.7571

          k =-0.2000 0.4000-0.2000 (  1090 PWs)   bands (ev):

    -2.9542   5.8779   9.9199  10.5816  12.6541  15.0343

          k =-0.3000 0.5000-0.3000 (  1089 PWs)   bands (ev):

    -1.7530   3.3982   9.8294   9.9442  12.1392  15.1047

          k = 0.6000-0.4000 0.6000 (  1094 PWs)   bands (ev):

    -0.2906   1.3471   9.3502  10.0484  12.1825  14.2570

          k = 0.5000-0.3000 0.5000 (  1088 PWs)   bands (ev):

    -0.7800   1.9549   8.9479  10.5412  12.7135  13.8867

          k = 0.4000-0.2000 0.4000 (  1087 PWs)   bands (ev):

    -2.1927   4.1901   8.8307  11.2241  13.6295  13.9692

          k = 0.3000-0.1000 0.3000 (  1081 PWs)   bands (ev):

    -3.2742   6.7722   9.0343  11.9478  14.5082  14.6904

          k = 0.2000 0.0000 0.2000 (  1081 PWs)   bands (ev):

    -3.9814   9.5408   9.5874  12.4309  14.4186  14.6514

          k = 0.0000 0.4000 0.0000 (  1086 PWs)   bands (ev):

    -3.4655   9.5063   9.5063   9.9522  11.0406  12.8291

          k =-0.1000 0.5000-0.1000 (  1079 PWs)   bands (ev):

    -2.7601   7.1806   8.9937   9.1318  11.0904  12.6201

          k =-0.2000 0.6000-0.2000 (  1078 PWs)   bands (ev):

    -1.6813   4.6521   8.0633   8.8129  10.7962  14.4175

          k = 0.7000-0.3000 0.7000 (  1088 PWs)   bands (ev):

    -0.2718   2.4365   7.1614   8.9663  10.8860  16.3037

          k = 0.6000-0.2000 0.6000 (  1090 PWs)   bands (ev):

     0.2124   1.8386   6.5503   9.4453  11.3898  15.7750

          k = 0.5000-0.1000 0.5000 (  1096 PWs)   bands (ev):

    -1.2470   3.8836   6.2738  10.2227  12.2712  15.5529

          k = 0.4000 0.0000 0.4000 (  1083 PWs)   bands (ev):

    -2.4438   6.3100   6.3822  11.2090  13.4778  15.6026

          k = 0.0000 0.6000 0.0000 (  1086 PWs)   bands (ev):

    -2.1837   7.3971   8.3714   8.3714   9.7928  10.7516

          k =-0.1000 0.7000-0.1000 (  1080 PWs)   bands (ev):

    -1.2317   5.8015   6.6513   8.0824   9.8612  11.5515

          k = 0.8000-0.2000 0.8000 (  1092 PWs)   bands (ev):

     0.0731   3.8281   5.2306   8.1332   9.9179  13.7866

          k = 0.7000-0.1000 0.7000 (  1097 PWs)   bands (ev):

     1.3223   2.3026   4.3932   8.5215  10.3380  16.2945

          k = 0.6000 0.0000 0.6000 (  1097 PWs)   bands (ev):

     0.0484   3.8766   4.0208   9.2337  11.1321  17.4075

          k = 0.0000 0.8000 0.0000 (  1082 PWs)   bands (ev):

    -0.4080   4.4968   7.6822   7.6822   9.0312   9.7903

          k = 0.9000-0.1000 0.9000 (  1088 PWs)   bands (ev):

     0.7754   3.2225   5.9155   7.6227   9.3076  11.0506

          k = 0.8000 0.0000 0.8000 (  1103 PWs)   bands (ev):

     2.0868   2.4011   3.9741   7.9049   9.6439  13.5671

          k = 0.0000-1.0000 0.0000 (  1106 PWs)   bands (ev):

     1.7677   1.9076   7.4513   7.4513   8.7759   9.4986

          k =-0.2000 0.4000 0.0000 (  1074 PWs)   bands (ev):

    -3.2093   7.9613   7.9677  10.9981  13.0216  13.7591

          k =-0.3000 0.5000-0.1000 (  1086 PWs)   bands (ev):

    -2.2527   5.3284   7.6417   9.9687  12.9455  14.6586

          k = 0.6000-0.4000 0.8000 (  1089 PWs)   bands (ev):

    -0.9409   2.9736   7.6263   9.0396  12.8612  14.1849

          k = 0.5000-0.3000 0.7000 (  1092 PWs)   bands (ev):

     0.3267   1.3544   7.7362   8.6030  12.9397  13.7850

          k =-0.2000 0.6000 0.0000 (  1072 PWs)   bands (ev):

    -1.9313   6.6316   6.7742   8.2129  11.8520  12.2683

          k = 0.7000-0.3000 0.9000 (  1080 PWs)   bands (ev):

    -0.7375   4.3248   6.3566   7.2755  11.9603  14.1313

          k = 0.6000-0.2000 0.8000 (  1094 PWs)   bands (ev):

     0.7187   2.3099   5.7686   7.2557  12.2247  15.5220

          k = 0.5000-0.1000 0.7000 (  1090 PWs)   bands (ev):

     0.2228   2.9275   5.2932   7.8314  12.8124  15.2067

          k = 0.4000 0.0000 0.6000 (  1091 PWs)   bands (ev):

    -1.1796   5.0975   5.1717   8.7823  13.6108  14.8923

          k = 0.8000-0.2000 1.0000 (  1084 PWs)   bands (ev):

    -0.1636   4.6246   6.0508   6.4859  11.1325  11.5022

          k = 0.7000-0.1000 0.9000 (  1092 PWs)   bands (ev):

     1.2302   3.4100   4.3166   6.4303  11.4783  13.7239

          k = 0.6000 0.0000 0.8000 (  1088 PWs)   bands (ev):

     1.6264   3.1398   3.4260   6.9449  11.9980  16.2391

          k =-0.2000-1.0000 0.0000 (  1094 PWs)   bands (ev):

     1.9721   2.1545   5.8088   6.1423  10.8907  11.2546

          k = 0.6000-0.2000 1.0000 (  1091 PWs)   bands (ev):

     0.5547   4.2821   4.3648   5.9720  14.0221  14.2123

          k = 0.5000-0.1000 0.9000 (  1088 PWs)   bands (ev):

     1.8084   2.7690   4.4469   5.4488  14.1484  15.1228

          k =-0.4000-1.0000 0.0000 (  1088 PWs)   bands (ev):

     2.4534   2.8937   4.1199   4.7793  13.9511  13.9816

     the Fermi energy is     3.6479 ev

!    total energy              =     -12.41985955 Ry
     estimated scf accuracy    <          1.4E-09 Ry
     smearing contrib. (-TS)   =       0.00097447 Ry
     internal energy E=F+TS    =     -12.42083402 Ry

     The total energy is F=E-TS. E is the sum of the following terms:
     one-electron contribution =       1.95813013 Ry
     hartree contribution      =       0.02530155 Ry
     xc contribution           =      -9.81940362 Ry
     ewald contribution        =      -4.58486207 Ry

     convergence has been achieved in   5 iterations

     Forces acting on atoms (cartesian axes, Ry/au):

     atom    1 type  1   force =     0.00000000    0.00000000    0.00000000

     Total force =     0.000000     Total SCF correction =     0.000000


     Computing stress (Cartesian axis) and pressure

          total   stress  (Ry/bohr**3)                   (kbar)     P=     -115.54
  -0.00078541  -0.00000000   0.00000000         -115.54       -0.00        0.00
  -0.00000000  -0.00078541   0.00000000           -0.00     -115.54        0.00
   0.00000000   0.00000000  -0.00078541            0.00        0.00     -115.54


     Writing all to output data dir /Users/zhy/Aluminum-from-First-Principles/convergence-runs/cutoff-kmesh/ecut-050.0-ry_k-10x10x10_degauss-0.050-ry/qe-out/aluminum_ecut-050p0-ry_k-10x10x10_degauss-0p050-ry.save/ :
     XML data file, charge density, pseudopotentials, collected wavefunctions

     init_run     :      0.29s CPU      0.29s WALL (       1 calls)
     electrons    :      1.04s CPU      1.07s WALL (       1 calls)
     forces       :      0.01s CPU      0.01s WALL (       1 calls)
     stress       :      0.05s CPU      0.05s WALL (       1 calls)

     Called by init_run:
     wfcinit      :      0.05s CPU      0.05s WALL (       1 calls)
     potinit      :      0.09s CPU      0.09s WALL (       1 calls)
     hinit0       :      0.11s CPU      0.11s WALL (       1 calls)

     Called by electrons:
     c_bands      :      0.81s CPU      0.83s WALL (       6 calls)
     sum_band     :      0.17s CPU      0.17s WALL (       6 calls)
     v_of_rho     :      0.05s CPU      0.06s WALL (       6 calls)
     newd         :      0.01s CPU      0.01s WALL (       6 calls)
     mix_rho      :      0.00s CPU      0.00s WALL (       6 calls)

     Called by c_bands:
     init_us_2    :      0.02s CPU      0.02s WALL (     705 calls)
     cegterg      :      0.80s CPU      0.82s WALL (     282 calls)

     Called by *egterg:
     cdiaghg      :      0.03s CPU      0.03s WALL (    1055 calls)
     h_psi        :      0.75s CPU      0.77s WALL (    1149 calls)
     s_psi        :      0.00s CPU      0.01s WALL (    1149 calls)
     g_psi        :      0.00s CPU      0.00s WALL (     820 calls)

     Called by h_psi:
     h_psi:calbec :      0.01s CPU      0.01s WALL (    1149 calls)
     vloc_psi     :      0.74s CPU      0.75s WALL (    1149 calls)
     add_vuspsi   :      0.00s CPU      0.01s WALL (    1149 calls)

     General routines
     calbec       :      0.01s CPU      0.01s WALL (    2230 calls)
     fft          :      0.11s CPU      0.11s WALL (     102 calls)
     ffts         :      0.08s CPU      0.08s WALL (      12 calls)
     fftw         :      0.80s CPU      0.81s WALL (   11238 calls)
     interpolate  :      0.08s CPU      0.08s WALL (       6 calls)

     Parallel routines

     PWSCF        :      1.41s CPU      1.46s WALL


   This run was terminated on:   1:12:58  23Sep2026            

=------------------------------------------------------------------------------=
   JOB DONE.
=------------------------------------------------------------------------------=
Note: The following floating-point exceptions are signalling: IEEE_INVALID_FLAG IEEE_DIVIDE_BY_ZERO IEEE_UNDERFLOW_FLAG
Note: The following floating-point exceptions are signalling: IEEE_UNDERFLOW_FLAG
