
     Program PWSCF v.7.6 starts on 26Sep2026 at  1:28:44 

     This program is part of the open-source Quantum ESPRESSO suite
     for quantum simulation of materials; please cite
         "P. Giannozzi et al., J. Phys.:Condens. Matter 21 395502 (2009);
         "P. Giannozzi et al., J. Phys.:Condens. Matter 29 465901 (2017);
         "P. Giannozzi et al., J. Chem. Phys. 152 154105 (2020);
          URL http://www.quantum-espresso.org", 
     in publications or presentations arising from this work. More details at
     http://www.quantum-espresso.org/quote

     Parallel version (MPI), running on     2 processors

     MPI processes distributed on     1 nodes
     0 MiB available memory on the printing compute node when the environment starts

     Reading input from Al.scf.inp

     Current dimensions of program PWSCF are:
     Max number of different atomic species (ntypx) = 10
     Max number of k-points (npk) =  40000
     Max angular momentum in pseudopotentials (lmaxx) =  4

     IMPORTANT: XC functional enforced from input :
     Exchange-correlation= PZ
                           (   1   1   0   0   0   0   0)
     Any further DFT definition will be discarded
     Please, verify this is what you really want


     R & G space division:  proc/nbgrp/npool/nimage =       2
     Subspace diagonalization in iterative solution of the eigenvalue problem:
     a serial algorithm will be used


     Parallelization info
     --------------------
     sticks:   dense  smooth     PW     G-vecs:    dense   smooth      PW
     Min         237     237     75                 3426     3426     620
     Max         238     238     76                 3429     3429     623
     Sum         475     475    151                 6855     6855    1243

     Using Slab Decomposition



     bravais-lattice index     =            2
     lattice parameter (alat)  =       7.6000  a.u.
     unit-cell volume          =     109.7440 (a.u.)^3
     number of atoms/cell      =            1
     number of atomic types    =            1
     number of electrons       =         3.00
     number of Kohn-Sham states=            6
     kinetic-energy cutoff     =      60.0000  Ry
     charge density cutoff     =     240.0000  Ry
     scf convergence threshold =      1.0E-08
     mixing beta               =       0.7000
     number of iterations used =            8  plain     mixing
     Exchange-correlation= PZ
                           (   1   1   0   0   0   0   0)

     celldm(1)=   7.600000  celldm(2)=   0.000000  celldm(3)=   0.000000
     celldm(4)=   0.000000  celldm(5)=   0.000000  celldm(6)=   0.000000

     crystal axes: (cart. coord. in units of alat)
               a(1) = (  -0.500000   0.000000   0.500000 )  
               a(2) = (   0.000000   0.500000   0.500000 )  
               a(3) = (  -0.500000   0.500000   0.000000 )  

     reciprocal axes: (cart. coord. in units 2 pi/alat)
               b(1) = ( -1.000000 -1.000000  1.000000 )  
               b(2) = (  1.000000  1.000000  1.000000 )  
               b(3) = ( -1.000000  1.000000 -1.000000 )  


     PseudoPot. # 1 for Al read from file:
     /Users/zhy/Aluminum-from-First-Principles/Al.pz-vbc.UPF
     MD5 check sum: f06ceae8da0fe5c02c98e3688433298c
     Pseudo is Norm-conserving, Zval =  3.0
     Generated by new atomic code, or converted to UPF format
     Using radial grid of  171 points,  2 beta functions with: 
                l(1) =   0
                l(2) =   1

     atomic species   valence    mass     pseudopotential
     Al                3.00    26.98200     Al( 1.00)

     48 Sym. Ops., with inversion, found



   Cartesian axes

     site n.     atom                  positions (alat units)
         1        Al     tau(   1) = (   0.0000000   0.0000000   0.0000000  )

     number of k points=    72  Methfessel-Paxton smearing, width (Ry)=  0.0100
                       cart. coord. in units 2pi/alat
        k(    1) = (   0.0000000   0.0000000   0.0000000), wk =   0.0011574
        k(    2) = (  -0.0833333   0.0833333  -0.0833333), wk =   0.0092593
        k(    3) = (  -0.1666667   0.1666667  -0.1666667), wk =   0.0092593
        k(    4) = (  -0.2500000   0.2500000  -0.2500000), wk =   0.0092593
        k(    5) = (  -0.3333333   0.3333333  -0.3333333), wk =   0.0092593
        k(    6) = (  -0.4166667   0.4166667  -0.4166667), wk =   0.0092593
        k(    7) = (   0.5000000  -0.5000000   0.5000000), wk =   0.0046296
        k(    8) = (   0.0000000   0.1666667   0.0000000), wk =   0.0069444
        k(    9) = (  -0.0833333   0.2500000  -0.0833333), wk =   0.0277778
        k(   10) = (  -0.1666667   0.3333333  -0.1666667), wk =   0.0277778
        k(   11) = (  -0.2500000   0.4166667  -0.2500000), wk =   0.0277778
        k(   12) = (  -0.3333333   0.5000000  -0.3333333), wk =   0.0277778
        k(   13) = (   0.5833333  -0.4166667   0.5833333), wk =   0.0277778
        k(   14) = (   0.5000000  -0.3333333   0.5000000), wk =   0.0277778
        k(   15) = (   0.4166667  -0.2500000   0.4166667), wk =   0.0277778
        k(   16) = (   0.3333333  -0.1666667   0.3333333), wk =   0.0277778
        k(   17) = (   0.2500000  -0.0833333   0.2500000), wk =   0.0277778
        k(   18) = (   0.1666667  -0.0000000   0.1666667), wk =   0.0138889
        k(   19) = (   0.0000000   0.3333333   0.0000000), wk =   0.0069444
        k(   20) = (  -0.0833333   0.4166667  -0.0833333), wk =   0.0277778
        k(   21) = (  -0.1666667   0.5000000  -0.1666667), wk =   0.0277778
        k(   22) = (  -0.2500000   0.5833333  -0.2500000), wk =   0.0277778
        k(   23) = (   0.6666667  -0.3333333   0.6666667), wk =   0.0277778
        k(   24) = (   0.5833333  -0.2500000   0.5833333), wk =   0.0277778
        k(   25) = (   0.5000000  -0.1666667   0.5000000), wk =   0.0277778
        k(   26) = (   0.4166667  -0.0833333   0.4166667), wk =   0.0277778
        k(   27) = (   0.3333333   0.0000000   0.3333333), wk =   0.0138889
        k(   28) = (   0.0000000   0.5000000   0.0000000), wk =   0.0069444
        k(   29) = (  -0.0833333   0.5833333  -0.0833333), wk =   0.0277778
        k(   30) = (  -0.1666667   0.6666667  -0.1666667), wk =   0.0277778
        k(   31) = (   0.7500000  -0.2500000   0.7500000), wk =   0.0277778
        k(   32) = (   0.6666667  -0.1666667   0.6666667), wk =   0.0277778
        k(   33) = (   0.5833333  -0.0833333   0.5833333), wk =   0.0277778
        k(   34) = (   0.5000000   0.0000000   0.5000000), wk =   0.0138889
        k(   35) = (   0.0000000   0.6666667   0.0000000), wk =   0.0069444
        k(   36) = (  -0.0833333   0.7500000  -0.0833333), wk =   0.0277778
        k(   37) = (   0.8333333  -0.1666667   0.8333333), wk =   0.0277778
        k(   38) = (   0.7500000  -0.0833333   0.7500000), wk =   0.0277778
        k(   39) = (   0.6666667   0.0000000   0.6666667), wk =   0.0138889
        k(   40) = (   0.0000000   0.8333333   0.0000000), wk =   0.0069444
        k(   41) = (   0.9166667  -0.0833333   0.9166667), wk =   0.0277778
        k(   42) = (   0.8333333   0.0000000   0.8333333), wk =   0.0138889
        k(   43) = (   0.0000000  -1.0000000   0.0000000), wk =   0.0034722
        k(   44) = (  -0.1666667   0.3333333   0.0000000), wk =   0.0277778
        k(   45) = (  -0.2500000   0.4166667  -0.0833333), wk =   0.0555556
        k(   46) = (  -0.3333333   0.5000000  -0.1666667), wk =   0.0555556
        k(   47) = (   0.5833333  -0.4166667   0.7500000), wk =   0.0555556
        k(   48) = (   0.5000000  -0.3333333   0.6666667), wk =   0.0277778
        k(   49) = (  -0.1666667   0.5000000   0.0000000), wk =   0.0277778
        k(   50) = (  -0.2500000   0.5833333  -0.0833333), wk =   0.0555556
        k(   51) = (   0.6666667  -0.3333333   0.8333333), wk =   0.0555556
        k(   52) = (   0.5833333  -0.2500000   0.7500000), wk =   0.0555556
        k(   53) = (   0.5000000  -0.1666667   0.6666667), wk =   0.0555556
        k(   54) = (   0.4166667  -0.0833333   0.5833333), wk =   0.0555556
        k(   55) = (   0.3333333   0.0000000   0.5000000), wk =   0.0277778
        k(   56) = (  -0.1666667   0.6666667  -0.0000000), wk =   0.0277778
        k(   57) = (   0.7500000  -0.2500000   0.9166667), wk =   0.0555556
        k(   58) = (   0.6666667  -0.1666667   0.8333333), wk =   0.0555556
        k(   59) = (   0.5833333  -0.0833333   0.7500000), wk =   0.0555556
        k(   60) = (   0.5000000   0.0000000   0.6666667), wk =   0.0277778
        k(   61) = (   0.8333333  -0.1666667   1.0000000), wk =   0.0277778
        k(   62) = (   0.7500000  -0.0833333   0.9166667), wk =   0.0555556
        k(   63) = (   0.6666667   0.0000000   0.8333333), wk =   0.0277778
        k(   64) = (  -0.1666667  -1.0000000   0.0000000), wk =   0.0138889
        k(   65) = (   0.6666667  -0.3333333   1.0000000), wk =   0.0277778
        k(   66) = (   0.5833333  -0.2500000   0.9166667), wk =   0.0555556
        k(   67) = (   0.5000000  -0.1666667   0.8333333), wk =   0.0277778
        k(   68) = (   0.6666667  -0.1666667   1.0000000), wk =   0.0277778
        k(   69) = (   0.5833333  -0.0833333   0.9166667), wk =   0.0555556
        k(   70) = (   0.5000000   0.0000000   0.8333333), wk =   0.0277778
        k(   71) = (  -0.3333333  -1.0000000   0.0000000), wk =   0.0138889
        k(   72) = (  -0.5000000  -1.0000000   0.0000000), wk =   0.0069444

     Dense  grid:     6855 G-vectors     FFT dimensions: (  27,  27,  27)

     Estimated max dynamical RAM per process >       5.30 MB

     Estimated total dynamical RAM >      10.60 MB

     Initial potential from superposition of free atoms

     starting charge       2.9979, renormalised to       3.0000
     Starting wfcs are    4 randomized atomic wfcs +    2 random wfcs

     total cpu time spent up to now is        0.2 secs

     Self-consistent Calculation

     iteration #  1     ecut=    60.00 Ry     beta= 0.70
     Davidson diagonalization with overlap
     ethr =  1.00E-02,  avg # of iterations =  5.8

     Threshold (ethr) on eigenvalues was too large:
     Diagonalizing with lowered threshold

     Davidson diagonalization with overlap
     ethr =  1.87E-04,  avg # of iterations =  1.9

     total cpu time spent up to now is        0.7 secs

     total energy              =      -4.19027660 Ry
     estimated scf accuracy    <       0.00561921 Ry

     iteration #  2     ecut=    60.00 Ry     beta= 0.70
     Davidson diagonalization with overlap
     ethr =  1.87E-04,  avg # of iterations =  1.0

     total cpu time spent up to now is        0.9 secs

     total energy              =      -4.19042339 Ry
     estimated scf accuracy    <       0.00042975 Ry

     iteration #  3     ecut=    60.00 Ry     beta= 0.70
     Davidson diagonalization with overlap
     ethr =  1.43E-05,  avg # of iterations =  2.2

     total cpu time spent up to now is        1.1 secs

     total energy              =      -4.19042694 Ry
     estimated scf accuracy    <       0.00000030 Ry

     iteration #  4     ecut=    60.00 Ry     beta= 0.70
     Davidson diagonalization with overlap
     ethr =  9.98E-09,  avg # of iterations =  2.5

     total cpu time spent up to now is        1.3 secs

     End of self-consistent calculation

          k = 0.0000 0.0000 0.0000 (   869 PWs)   bands (ev):

    -3.3335  20.5276  20.5276  21.6198  21.6198  21.6199

          k =-0.0833 0.0833-0.0833 (   881 PWs)   bands (ev):

    -3.1408  17.8086  19.8572  19.8572  22.4446  22.5729

          k =-0.1667 0.1667-0.1667 (   881 PWs)   bands (ev):

    -2.5649  14.4617  19.1242  19.1242  22.3396  23.6629

          k =-0.2500 0.2500-0.2500 (   878 PWs)   bands (ev):

    -1.6125  11.2835  18.6736  18.6736  22.1598  22.5317

          k =-0.3333 0.3333-0.3333 (   854 PWs)   bands (ev):

    -0.2938   8.3595  18.5302  18.5302  21.1433  21.1435

          k =-0.4167 0.4167-0.4167 (   865 PWs)   bands (ev):

     1.3777   5.7220  18.6954  18.6954  20.0304  20.0305

          k = 0.5000-0.5000 0.5000 (   862 PWs)   bands (ev):

     3.3251   3.4522  19.0528  19.0528  19.3547  19.3548

          k = 0.0000 0.1667 0.0000 (   881 PWs)   bands (ev):

    -3.0766  18.6829  18.6829  19.0700  21.1005  23.8402

          k =-0.0833 0.2500-0.0833 (   881 PWs)   bands (ev):

    -2.6287  15.6588  17.8012  19.1271  21.4545  22.7406

          k =-0.1667 0.3333-0.1667 (   869 PWs)   bands (ev):

    -1.8021  12.4481  17.2322  18.7753  20.5325  23.3580

          k =-0.2500 0.4167-0.2500 (   860 PWs)   bands (ev):

    -0.6061   9.4499  16.9784  18.5787  18.9914  23.4301

          k =-0.3333 0.5000-0.3333 (   852 PWs)   bands (ev):

     0.9468   6.7223  17.0402  17.7363  18.6751  22.2317

          k = 0.5833-0.4167 0.5833 (   859 PWs)   bands (ev):

     2.8401   4.2937  16.8011  17.4183  19.0918  21.3270

          k = 0.5000-0.3333 0.5000 (   863 PWs)   bands (ev):

     2.1729   5.0676  16.1929  18.1113  19.8325  20.7401

          k = 0.4167-0.2500 0.4167 (   863 PWs)   bands (ev):

     0.3904   7.5975  15.9144  19.1024  20.4907  20.8889

          k = 0.3333-0.1667 0.3333 (   869 PWs)   bands (ev):

    -1.0452  10.4140  15.9680  20.1767  20.7740  22.2348

          k = 0.2500-0.0833 0.2500 (   869 PWs)   bands (ev):

    -2.1193  13.4691  16.3663  20.7130  22.0167  23.2031

          k = 0.1667-0.0000 0.1667 (   883 PWs)   bands (ev):

    -2.8204  16.4273  17.3530  21.0264  21.8581  23.0129

          k = 0.0000 0.3333 0.0000 (   877 PWs)   bands (ev):

    -2.3099  16.7981  16.7981  17.0104  19.8958  20.3794

          k =-0.0833 0.4167-0.0833 (   865 PWs)   bands (ev):

    -1.6121  13.8618  16.1160  17.4580  18.2369  20.4222

          k =-0.1667 0.5000-0.1667 (   863 PWs)   bands (ev):

    -0.5433  10.8471  15.7526  16.5000  17.4140  22.2222

          k =-0.2500 0.5833-0.2500 (   864 PWs)   bands (ev):

     0.8851   8.0543  15.1111  15.7060  17.4495  24.4413

          k = 0.6667-0.3333 0.6667 (   866 PWs)   bands (ev):

     2.6574   5.5406  14.0476  15.9761  17.7847  23.7769

          k = 0.5833-0.2500 0.5833 (   855 PWs)   bands (ev):

     3.3215   4.7673  13.3220  16.5637  18.4482  23.0868

          k = 0.5000-0.1667 0.5000 (   858 PWs)   bands (ev):

     1.4389   7.1677  12.9472  17.4686  19.4372  22.7128

          k = 0.4167-0.0833 0.4167 (   864 PWs)   bands (ev):

    -0.1065   9.8185  12.9619  18.6843  20.7308  22.6459

          k = 0.3333 0.0000 0.3333 (   857 PWs)   bands (ev):

    -1.2968  12.3115  13.7394  20.1759  22.2762  22.5183

          k = 0.0000 0.5000 0.0000 (   849 PWs)   bands (ev):

    -1.0446  15.3007  15.3244  15.3244  16.0770  18.7714

          k =-0.0833 0.5833-0.0833 (   856 PWs)   bands (ev):

    -0.1062  12.4885  14.2211  14.8531  16.1092  19.2796

          k =-0.1667 0.6667-0.1667 (   859 PWs)   bands (ev):

     1.1924   9.6880  12.6964  14.6991  16.2815  21.2785

          k = 0.7500-0.2500 0.7500 (   863 PWs)   bands (ev):

     2.8354   7.1154  11.5051  14.8612  16.5614  23.8207

          k = 0.6667-0.1667 0.6667 (   858 PWs)   bands (ev):

     4.7005   4.9266  10.6662  15.3402  17.1405  25.7705

          k = 0.5833-0.0833 0.5833 (   858 PWs)   bands (ev):

     2.8397   7.0390  10.2292  16.1377  18.0452  25.2987

          k = 0.5000 0.0000 0.5000 (   867 PWs)   bands (ev):

     1.1932   9.0954  10.6170  17.2544  19.2600  24.9846

          k = 0.0000 0.6667 0.0000 (   866 PWs)   bands (ev):

     0.6997  12.2201  14.0567  14.2751  14.2751  17.7651

          k =-0.0833 0.7500-0.0833 (   857 PWs)   bands (ev):

     1.8640  10.5371  11.6020  14.0145  15.1694  18.4653

          k = 0.8333-0.1667 0.8333 (   853 PWs)   bands (ev):

     3.3676   8.8853   9.3702  14.0696  15.5735  20.6824

          k = 0.7500-0.0833 0.7500 (   861 PWs)   bands (ev):

     5.1555   6.6325   8.3607  14.4404  16.0960  23.4652

          k = 0.6667 0.0000 0.6667 (   866 PWs)   bands (ev):

     4.5744   6.8111   8.2519  15.1288  16.9157  26.4376

          k = 0.0000 0.8333 0.0000 (   854 PWs)   bands (ev):

     2.8868   8.7655  13.3048  13.6479  13.6479  17.1162

          k = 0.9167-0.0833 0.9167 (   856 PWs)   bands (ev):

     4.2203   7.3513  11.1284  13.5966  14.6952  18.0414

          k = 0.8333 0.0000 0.8333 (   856 PWs)   bands (ev):

     5.4488   6.7169   8.8048  13.8602  15.3336  20.4792

          k = 0.0000-1.0000 0.0000 (   846 PWs)   bands (ev):

     4.9963   6.2342  13.0534  13.4393  13.4393  16.8927

          k =-0.1667 0.3333 0.0000 (   871 PWs)   bands (ev):

    -2.0557  14.3806  15.5517  19.8342  20.3077  21.5958

          k =-0.2500 0.4167-0.0833 (   865 PWs)   bands (ev):

    -1.1079  11.6506  14.6785  18.6070  19.9950  22.8238

          k =-0.3333 0.5000-0.1667 (   864 PWs)   bands (ev):

     0.2044   8.7972  14.4683  17.1379  19.9505  22.6739

          k = 0.5833-0.4167 0.7500 (   860 PWs)   bands (ev):

     1.8674   6.1871  14.6170  15.9870  20.1443  21.5885

          k = 0.5000-0.3333 0.6667 (   860 PWs)   bands (ev):

     3.7844   3.9525  14.9749  15.2951  20.4611  20.9615

          k =-0.1667 0.5000 0.0000 (   858 PWs)   bands (ev):

    -0.7936  12.7745  14.0470  16.3207  18.3079  20.3262

          k =-0.2500 0.5833-0.0833 (   859 PWs)   bands (ev):

     0.3906  10.2701  13.3339  14.7218  18.7561  21.8465

          k = 0.6667-0.3333 0.8333 (   859 PWs)   bands (ev):

     1.9274   7.6305  13.1544  13.6117  18.9735  23.7913

          k = 0.5833-0.2500 0.7500 (   857 PWs)   bands (ev):

     3.7957   5.2436  12.3917  13.7958  19.4199  23.2357

          k = 0.5000-0.1667 0.6667 (   860 PWs)   bands (ev):

     3.1407   5.9933  11.8049  14.5008  20.1584  22.6411

          k = 0.4167-0.0833 0.5833 (   861 PWs)   bands (ev):

     1.3774   8.4311  11.6035  15.5514  21.1649  22.3075

          k = 0.3333 0.0000 0.5000 (   859 PWs)   bands (ev):

    -0.0442  10.7021  12.1965  16.9277  21.7214  22.2806

          k =-0.1667 0.6667-0.0000 (   853 PWs)   bands (ev):

     0.9463  11.6231  12.3509  13.0961  17.1778  19.3756

          k = 0.7500-0.2500 0.9167 (   862 PWs)   bands (ev):

     2.3508   9.3347  11.0132  12.5340  17.8745  21.1000

          k = 0.6667-0.1667 0.8333 (   855 PWs)   bands (ev):

     4.0840   6.9239   9.9595  12.7355  18.3305  23.6710

          k = 0.5833-0.0833 0.7500 (   858 PWs)   bands (ev):

     4.7465   6.1114   9.2871  13.3323  19.0082  25.2646

          k = 0.5000 0.0000 0.6667 (   862 PWs)   bands (ev):

     2.8993   7.9513   9.4399  14.2767  19.9721  24.5289

          k = 0.8333-0.1667 1.0000 (   863 PWs)   bands (ev):

     3.1275   8.9911  10.9311  12.3507  16.4946  18.7683

          k = 0.7500-0.0833 0.9167 (   859 PWs)   bands (ev):

     4.6905   7.8022   8.9284  12.0593  17.4248  20.7074

          k = 0.6667 0.0000 0.8333 (   855 PWs)   bands (ev):

     6.1291   6.6234   7.5676  12.5044  18.1109  23.5151

          k =-0.1667-1.0000 0.0000 (   858 PWs)   bands (ev):

     5.2225   6.4808  10.7003  12.1233  16.2664  18.5601

          k = 0.6667-0.3333 1.0000 (   857 PWs)   bands (ev):

     1.6830   9.5539  11.0286  13.2138  20.6442  22.1187

          k = 0.5833-0.2500 0.9167 (   860 PWs)   bands (ev):

     3.3178   7.5009  10.6343  12.0533  21.4005  22.8326

          k = 0.5000-0.1667 0.8333 (   866 PWs)   bands (ev):

     5.1573   5.3984  10.8428  11.4471  21.7301  22.3866

          k = 0.6667-0.1667 1.0000 (   868 PWs)   bands (ev):

     3.8462   8.8659   9.5660  10.5705  19.9717  21.6596

          k = 0.5833-0.0833 0.9167 (   868 PWs)   bands (ev):

     5.6225   7.0265   8.7646  10.3330  21.0062  23.7509

          k = 0.5000 0.0000 0.8333 (   861 PWs)   bands (ev):

     5.0317   7.2666   8.6922  10.9755  21.7950  23.8956

          k =-0.3333-1.0000 0.0000 (   870 PWs)   bands (ev):

     5.9021   7.1982   8.6367  10.2301  19.7454  21.4856

          k =-0.5000-1.0000 0.0000 (   876 PWs)   bands (ev):

     7.0386   7.0386   8.0226   8.9844  23.6765  23.6766

     the Fermi energy is     7.7208 ev

!    total energy              =      -4.19042697 Ry
     estimated scf accuracy    <          4.3E-09 Ry
     smearing contrib. (-TS)   =       0.00004331 Ry
     internal energy E=F+TS    =      -4.19047028 Ry

     The total energy is F=E-TS. E is the sum of the following terms:
     one-electron contribution =       2.84485339 Ry
     hartree contribution      =       0.00927304 Ry
     xc contribution           =      -1.61515479 Ry
     ewald contribution        =      -5.42944193 Ry

     convergence has been achieved in   4 iterations

     Forces acting on atoms (cartesian axes, Ry/au):

     atom    1 type  1   force =     0.00000000    0.00000000    0.00000000

     Total force =     0.000000     Total SCF correction =     0.000000


     Computing stress (Cartesian axis) and pressure

          total   stress  (Ry/bohr**3)                   (kbar)     P=      -34.08
  -0.00023170   0.00000000   0.00000000          -34.08        0.00        0.00
   0.00000000  -0.00023170  -0.00000000            0.00      -34.08       -0.00
   0.00000000  -0.00000000  -0.00023170            0.00       -0.00      -34.08


     Writing all to output data dir /Users/zhy/Aluminum-from-First-Principles/lda-convergence-runs/kmesh/ecut-060.0-ry_k-12x12x12_degauss-0.010-ry/qe-out/lda_kmesh_ecut-060p0-ry_k-12x12x12_degauss-0p010-ry.save/ :
     XML data file, charge density, pseudopotentials, collected wavefunctions

     init_run     :      0.13s CPU      0.14s WALL (       1 calls)
     electrons    :      1.03s CPU      1.10s WALL (       1 calls)
     forces       :      0.00s CPU      0.00s WALL (       1 calls)
     stress       :      0.03s CPU      0.03s WALL (       1 calls)

     Called by init_run:
     wfcinit      :      0.06s CPU      0.07s WALL (       1 calls)
     potinit      :      0.00s CPU      0.00s WALL (       1 calls)
     hinit0       :      0.06s CPU      0.06s WALL (       1 calls)

     Called by electrons:
     c_bands      :      0.87s CPU      0.92s WALL (       5 calls)
     sum_band     :      0.16s CPU      0.16s WALL (       5 calls)
     v_of_rho     :      0.00s CPU      0.00s WALL (       5 calls)
     mix_rho      :      0.00s CPU      0.00s WALL (       5 calls)

     Called by c_bands:
     init_us_2    :      0.02s CPU      0.02s WALL (     936 calls)
     cegterg      :      0.85s CPU      0.91s WALL (     360 calls)

     Called by *egterg:
     cdiaghg      :      0.03s CPU      0.03s WALL (    1251 calls)
     h_psi        :      0.82s CPU      0.87s WALL (    1395 calls)
     g_psi        :      0.00s CPU      0.00s WALL (     963 calls)

     Called by h_psi:
     h_psi:calbec :      0.01s CPU      0.01s WALL (    1395 calls)
     vloc_psi     :      0.80s CPU      0.84s WALL (    1395 calls)
     add_vuspsi   :      0.01s CPU      0.01s WALL (    1395 calls)

     General routines
     calbec       :      0.01s CPU      0.02s WALL (    2619 calls)
     fft          :      0.05s CPU      0.06s WALL (      20 calls)
     ffts         :      0.00s CPU      0.00s WALL (       5 calls)
     fftw         :      0.87s CPU      0.91s WALL (   14620 calls)

     Parallel routines

     PWSCF        :      1.20s CPU      1.32s WALL


   This run was terminated on:   1:28:45  26Sep2026            

=------------------------------------------------------------------------------=
   JOB DONE.
=------------------------------------------------------------------------------=
Note: The following floating-point exceptions are signalling: IEEE_INVALID_FLAG IEEE_DIVIDE_BY_ZERO IEEE_UNDERFLOW_FLAG
Note: The following floating-point exceptions are signalling: IEEE_UNDERFLOW_FLAG
