
     Program PWSCF v.7.6 starts on 22Sep2026 at 23:45:21 

     This program is part of the open-source Quantum ESPRESSO suite
     for quantum simulation of materials; please cite
         "P. Giannozzi et al., J. Phys.:Condens. Matter 21 395502 (2009);
         "P. Giannozzi et al., J. Phys.:Condens. Matter 29 465901 (2017);
         "P. Giannozzi et al., J. Chem. Phys. 152 154105 (2020);
          URL http://www.quantum-espresso.org", 
     in publications or presentations arising from this work. More details at
     http://www.quantum-espresso.org/quote

     Parallel version (MPI), running on     2 processors

     MPI processes distributed on     1 nodes
     0 MiB available memory on the printing compute node when the environment starts

     Reading input from Al.scf.inp

     Current dimensions of program PWSCF are:
     Max number of different atomic species (ntypx) = 10
     Max number of k-points (npk) =  40000
     Max angular momentum in pseudopotentials (lmaxx) =  4

     R & G space division:  proc/nbgrp/npool/nimage =       2
     Subspace diagonalization in iterative solution of the eigenvalue problem:
     a serial algorithm will be used


     Parallelization info
     --------------------
     sticks:   dense  smooth     PW     G-vecs:    dense   smooth      PW
     Min         279     141     45                 4327     1559     304
     Max         280     142     46                 4330     1560     305
     Sum         559     283     91                 8657     3119     609

     Using Slab Decomposition



     bravais-lattice index     =            2
     lattice parameter (alat)  =       9.0000  a.u.
     unit-cell volume          =     182.2500 (a.u.)^3
     number of atoms/cell      =            1
     number of atomic types    =            1
     number of electrons       =         3.00
     number of Kohn-Sham states=            6
     kinetic-energy cutoff     =      25.0000  Ry
     charge density cutoff     =     200.0000  Ry
     scf convergence threshold =      1.0E-08
     mixing beta               =       0.7000
     number of iterations used =            8  plain     mixing
     Exchange-correlation= SLA  PW   PBE  PBE
                           (   1   4   3   4   0   0   0)

     celldm(1)=   9.000000  celldm(2)=   0.000000  celldm(3)=   0.000000
     celldm(4)=   0.000000  celldm(5)=   0.000000  celldm(6)=   0.000000

     crystal axes: (cart. coord. in units of alat)
               a(1) = (  -0.500000   0.000000   0.500000 )  
               a(2) = (   0.000000   0.500000   0.500000 )  
               a(3) = (  -0.500000   0.500000   0.000000 )  

     reciprocal axes: (cart. coord. in units 2 pi/alat)
               b(1) = ( -1.000000 -1.000000  1.000000 )  
               b(2) = (  1.000000  1.000000  1.000000 )  
               b(3) = ( -1.000000  1.000000 -1.000000 )  


     PseudoPot. # 1 for Al read from file:
     /Users/zhy/Aluminum-from-First-Principles/Al.pbe-n-van.UPF
     MD5 check sum: cbc97ad259b400557db688b98a6ada97
     Pseudo is Ultrasoft + core correction, Zval =  3.0
     Generated by new atomic code, or converted to UPF format
     Using radial grid of  893 points,  2 beta functions with: 
                l(1) =   0
                l(2) =   1
     Q(r) pseudized with  8 coefficients,  rinner =    0.900   0.900   0.900


     atomic species   valence    mass     pseudopotential
     Al                3.00    26.98200     Al( 1.00)

     48 Sym. Ops., with inversion, found



   Cartesian axes

     site n.     atom                  positions (alat units)
         1        Al     tau(   1) = (   0.0000000   0.0000000   0.0000000  )

     number of k points=    72  Methfessel-Paxton smearing, width (Ry)=  0.0500
                       cart. coord. in units 2pi/alat
        k(    1) = (   0.0000000   0.0000000   0.0000000), wk =   0.0011574
        k(    2) = (  -0.0833333   0.0833333  -0.0833333), wk =   0.0092593
        k(    3) = (  -0.1666667   0.1666667  -0.1666667), wk =   0.0092593
        k(    4) = (  -0.2500000   0.2500000  -0.2500000), wk =   0.0092593
        k(    5) = (  -0.3333333   0.3333333  -0.3333333), wk =   0.0092593
        k(    6) = (  -0.4166667   0.4166667  -0.4166667), wk =   0.0092593
        k(    7) = (   0.5000000  -0.5000000   0.5000000), wk =   0.0046296
        k(    8) = (   0.0000000   0.1666667   0.0000000), wk =   0.0069444
        k(    9) = (  -0.0833333   0.2500000  -0.0833333), wk =   0.0277778
        k(   10) = (  -0.1666667   0.3333333  -0.1666667), wk =   0.0277778
        k(   11) = (  -0.2500000   0.4166667  -0.2500000), wk =   0.0277778
        k(   12) = (  -0.3333333   0.5000000  -0.3333333), wk =   0.0277778
        k(   13) = (   0.5833333  -0.4166667   0.5833333), wk =   0.0277778
        k(   14) = (   0.5000000  -0.3333333   0.5000000), wk =   0.0277778
        k(   15) = (   0.4166667  -0.2500000   0.4166667), wk =   0.0277778
        k(   16) = (   0.3333333  -0.1666667   0.3333333), wk =   0.0277778
        k(   17) = (   0.2500000  -0.0833333   0.2500000), wk =   0.0277778
        k(   18) = (   0.1666667  -0.0000000   0.1666667), wk =   0.0138889
        k(   19) = (   0.0000000   0.3333333   0.0000000), wk =   0.0069444
        k(   20) = (  -0.0833333   0.4166667  -0.0833333), wk =   0.0277778
        k(   21) = (  -0.1666667   0.5000000  -0.1666667), wk =   0.0277778
        k(   22) = (  -0.2500000   0.5833333  -0.2500000), wk =   0.0277778
        k(   23) = (   0.6666667  -0.3333333   0.6666667), wk =   0.0277778
        k(   24) = (   0.5833333  -0.2500000   0.5833333), wk =   0.0277778
        k(   25) = (   0.5000000  -0.1666667   0.5000000), wk =   0.0277778
        k(   26) = (   0.4166667  -0.0833333   0.4166667), wk =   0.0277778
        k(   27) = (   0.3333333   0.0000000   0.3333333), wk =   0.0138889
        k(   28) = (   0.0000000   0.5000000   0.0000000), wk =   0.0069444
        k(   29) = (  -0.0833333   0.5833333  -0.0833333), wk =   0.0277778
        k(   30) = (  -0.1666667   0.6666667  -0.1666667), wk =   0.0277778
        k(   31) = (   0.7500000  -0.2500000   0.7500000), wk =   0.0277778
        k(   32) = (   0.6666667  -0.1666667   0.6666667), wk =   0.0277778
        k(   33) = (   0.5833333  -0.0833333   0.5833333), wk =   0.0277778
        k(   34) = (   0.5000000   0.0000000   0.5000000), wk =   0.0138889
        k(   35) = (   0.0000000   0.6666667   0.0000000), wk =   0.0069444
        k(   36) = (  -0.0833333   0.7500000  -0.0833333), wk =   0.0277778
        k(   37) = (   0.8333333  -0.1666667   0.8333333), wk =   0.0277778
        k(   38) = (   0.7500000  -0.0833333   0.7500000), wk =   0.0277778
        k(   39) = (   0.6666667   0.0000000   0.6666667), wk =   0.0138889
        k(   40) = (   0.0000000   0.8333333   0.0000000), wk =   0.0069444
        k(   41) = (   0.9166667  -0.0833333   0.9166667), wk =   0.0277778
        k(   42) = (   0.8333333   0.0000000   0.8333333), wk =   0.0138889
        k(   43) = (   0.0000000  -1.0000000   0.0000000), wk =   0.0034722
        k(   44) = (  -0.1666667   0.3333333   0.0000000), wk =   0.0277778
        k(   45) = (  -0.2500000   0.4166667  -0.0833333), wk =   0.0555556
        k(   46) = (  -0.3333333   0.5000000  -0.1666667), wk =   0.0555556
        k(   47) = (   0.5833333  -0.4166667   0.7500000), wk =   0.0555556
        k(   48) = (   0.5000000  -0.3333333   0.6666667), wk =   0.0277778
        k(   49) = (  -0.1666667   0.5000000   0.0000000), wk =   0.0277778
        k(   50) = (  -0.2500000   0.5833333  -0.0833333), wk =   0.0555556
        k(   51) = (   0.6666667  -0.3333333   0.8333333), wk =   0.0555556
        k(   52) = (   0.5833333  -0.2500000   0.7500000), wk =   0.0555556
        k(   53) = (   0.5000000  -0.1666667   0.6666667), wk =   0.0555556
        k(   54) = (   0.4166667  -0.0833333   0.5833333), wk =   0.0555556
        k(   55) = (   0.3333333   0.0000000   0.5000000), wk =   0.0277778
        k(   56) = (  -0.1666667   0.6666667  -0.0000000), wk =   0.0277778
        k(   57) = (   0.7500000  -0.2500000   0.9166667), wk =   0.0555556
        k(   58) = (   0.6666667  -0.1666667   0.8333333), wk =   0.0555556
        k(   59) = (   0.5833333  -0.0833333   0.7500000), wk =   0.0555556
        k(   60) = (   0.5000000   0.0000000   0.6666667), wk =   0.0277778
        k(   61) = (   0.8333333  -0.1666667   1.0000000), wk =   0.0277778
        k(   62) = (   0.7500000  -0.0833333   0.9166667), wk =   0.0555556
        k(   63) = (   0.6666667   0.0000000   0.8333333), wk =   0.0277778
        k(   64) = (  -0.1666667  -1.0000000   0.0000000), wk =   0.0138889
        k(   65) = (   0.6666667  -0.3333333   1.0000000), wk =   0.0277778
        k(   66) = (   0.5833333  -0.2500000   0.9166667), wk =   0.0555556
        k(   67) = (   0.5000000  -0.1666667   0.8333333), wk =   0.0277778
        k(   68) = (   0.6666667  -0.1666667   1.0000000), wk =   0.0277778
        k(   69) = (   0.5833333  -0.0833333   0.9166667), wk =   0.0555556
        k(   70) = (   0.5000000   0.0000000   0.8333333), wk =   0.0277778
        k(   71) = (  -0.3333333  -1.0000000   0.0000000), wk =   0.0138889
        k(   72) = (  -0.5000000  -1.0000000   0.0000000), wk =   0.0069444

     Dense  grid:     8657 G-vectors     FFT dimensions: (  30,  30,  30)

     Smooth grid:     3119 G-vectors     FFT dimensions: (  24,  24,  24)

     Estimated max dynamical RAM per process >       5.68 MB

     Estimated total dynamical RAM >      11.37 MB

     Initial potential from superposition of free atoms

     starting charge       2.9975, renormalised to       3.0000
     Starting wfcs are    4 randomized atomic wfcs +    2 random wfcs

     total cpu time spent up to now is        0.3 secs

     Self-consistent Calculation

     iteration #  1     ecut=    25.00 Ry     beta= 0.70
     Davidson diagonalization with overlap
     ethr =  1.00E-02,  avg # of iterations =  5.3

     Threshold (ethr) on eigenvalues was too large:
     Diagonalizing with lowered threshold

     Davidson diagonalization with overlap
     ethr =  1.84E-04,  avg # of iterations =  2.9

     total cpu time spent up to now is        0.6 secs

     total energy              =     -12.41770019 Ry
     estimated scf accuracy    <       0.00544289 Ry

     iteration #  2     ecut=    25.00 Ry     beta= 0.70
     Davidson diagonalization with overlap
     ethr =  1.81E-04,  avg # of iterations =  1.0

     total cpu time spent up to now is        0.7 secs

     total energy              =     -12.41782336 Ry
     estimated scf accuracy    <       0.00025292 Ry

     iteration #  3     ecut=    25.00 Ry     beta= 0.70
     Davidson diagonalization with overlap
     ethr =  8.43E-06,  avg # of iterations =  3.9

     total cpu time spent up to now is        0.8 secs

     total energy              =     -12.41785322 Ry
     estimated scf accuracy    <       0.00000093 Ry

     iteration #  4     ecut=    25.00 Ry     beta= 0.70
     Davidson diagonalization with overlap
     c_bands:  1 eigenvalues not converged
     ethr =  3.11E-08,  avg # of iterations =  3.4

     total cpu time spent up to now is        0.9 secs

     total energy              =     -12.41785438 Ry
     estimated scf accuracy    <       0.00000005 Ry

     iteration #  5     ecut=    25.00 Ry     beta= 0.70
     Davidson diagonalization with overlap
     ethr =  1.65E-09,  avg # of iterations =  1.6

     total cpu time spent up to now is        1.0 secs

     End of self-consistent calculation

          k = 0.0000 0.0000 0.0000 (   387 PWs)   bands (ev):

    -4.4986  12.4659  12.4659  12.4659  13.9441  13.9441

          k =-0.0833 0.0833-0.0833 (   375 PWs)   bands (ev):

    -4.3634  10.8821  12.1056  12.1056  14.2446  14.4634

          k =-0.1667 0.1667-0.1667 (   368 PWs)   bands (ev):

    -3.9595   8.5128  11.5815  11.5815  14.0880  15.1555

          k =-0.2500 0.2500-0.2500 (   380 PWs)   bands (ev):

    -3.2900   6.1852  11.1893  11.1893  13.8423  14.7553

          k =-0.3333 0.3333-0.3333 (   389 PWs)   bands (ev):

    -2.3620   4.0399  10.9659  10.9659  13.6983  13.9628

          k =-0.4167 0.4167-0.4167 (   386 PWs)   bands (ev):

    -1.1987   2.1385  10.8821  10.8821  13.3782  13.3782

          k = 0.5000-0.5000 0.5000 (   392 PWs)   bands (ev):

    -0.1809   0.8728  10.8660  10.8660  13.1630  13.6737

          k = 0.0000 0.1667 0.0000 (   371 PWs)   bands (ev):

    -4.3184  11.3648  11.3648  11.9205  12.9940  15.2804

          k =-0.0833 0.2500-0.0833 (   372 PWs)   bands (ev):

    -4.0042   9.3893  10.7306  11.6172  13.2007  15.4403

          k =-0.1667 0.3333-0.1667 (   374 PWs)   bands (ev):

    -3.4231   7.0473  10.2939  11.1126  13.3269  14.9806

          k =-0.2500 0.4167-0.2500 (   379 PWs)   bands (ev):

    -2.5802   4.8407  10.0716  10.6387  12.7335  14.9126

          k =-0.3333 0.5000-0.3333 (   383 PWs)   bands (ev):

    -1.4900   2.8529  10.0671  10.1705  12.3795  14.5707

          k = 0.5833-0.4167 0.5833 (   387 PWs)   bands (ev):

    -0.2679   1.2196   9.7351  10.2689  12.4351  13.9984

          k = 0.5000-0.3333 0.5000 (   390 PWs)   bands (ev):

    -0.6615   1.6954   9.4163  10.6461  12.8429  13.7043

          k = 0.4167-0.2500 0.4167 (   384 PWs)   bands (ev):

    -1.8791   3.4876   9.2847  11.1451  13.5336  13.7456

          k = 0.3333-0.1667 0.3333 (   379 PWs)   bands (ev):

    -2.8900   5.5568   9.3622  11.6858  14.1501  14.3862

          k = 0.2500-0.0833 0.2500 (   375 PWs)   bands (ev):

    -3.6463   7.8232   9.6625  12.1985  14.6471  14.6561

          k = 0.1667-0.0000 0.1667 (   377 PWs)   bands (ev):

    -4.1389  10.1491  10.2122  12.5098  14.2929  14.5393

          k = 0.0000 0.3333 0.0000 (   371 PWs)   bands (ev):

    -3.7800  10.0132  10.0132  10.6559  11.5740  13.8618

          k =-0.0833 0.4167-0.0833 (   374 PWs)   bands (ev):

    -3.2882   8.0917   9.5028  10.1290  11.7294  13.1070

          k =-0.1667 0.5000-0.1667 (   383 PWs)   bands (ev):

    -2.5331   5.8689   9.2158   9.3575  11.4223  14.1361

          k =-0.2500 0.5833-0.2500 (   385 PWs)   bands (ev):

    -1.5242   3.8179   8.5759   9.1621  11.2003  15.5964

          k = 0.6667-0.3333 0.6667 (   381 PWs)   bands (ev):

    -0.3077   2.0341   7.9100   9.3390  11.3108  15.6320

          k = 0.5833-0.2500 0.5833 (   387 PWs)   bands (ev):

     0.0836   1.5622   7.4272   9.7328  11.7186  15.1740

          k = 0.5000-0.1667 0.5000 (   389 PWs)   bands (ev):

    -1.1383   3.1924   7.1681  10.3337  12.3992  14.9683

          k = 0.4167-0.0833 0.4167 (   386 PWs)   bands (ev):

    -2.2259   5.1722   7.1451  11.0939  13.3196  15.0371

          k = 0.3333 0.0000 0.3333 (   385 PWs)   bands (ev):

    -3.0668   7.3397   7.3859  11.8761  14.4095  15.3319

          k = 0.0000 0.5000 0.0000 (   375 PWs)   bands (ev):

    -2.8863   8.8107   8.9148   8.9148  10.3765  11.6289

          k =-0.0833 0.5833-0.0833 (   382 PWs)   bands (ev):

    -2.2201   6.9971   8.0272   8.5540  10.4234  11.7719

          k =-0.1667 0.6667-0.1667 (   388 PWs)   bands (ev):

    -1.2970   4.9819   6.9870   8.4292  10.2889  13.3533

          k = 0.7500-0.2500 0.7500 (   390 PWs)   bands (ev):

    -0.1399   3.1298   6.1430   8.5384  10.3774  15.2533

          k = 0.6667-0.1667 0.6667 (   388 PWs)   bands (ev):

     0.8747   1.8851   5.5312   8.8805  10.7392  17.0536

          k = 0.5833-0.0833 0.5833 (   388 PWs)   bands (ev):

    -0.1509   3.1586   5.1617   9.4481  11.3669  16.6871

          k = 0.5000 0.0000 0.5000 (   379 PWs)   bands (ev):

    -1.3044   4.9909   5.0939  10.2148  12.2415  16.3746

          k = 0.0000 0.6667 0.0000 (   387 PWs)   bands (ev):

    -1.6435   6.4414   8.1159   8.1160   9.4997  10.3635

          k =-0.0833 0.7500-0.0833 (   385 PWs)   bands (ev):

    -0.8084   5.2416   6.6441   7.9153   9.6297  11.0289

          k = 0.8333-0.1667 0.8333 (   382 PWs)   bands (ev):

     0.2719   4.0607   4.9810   7.9524   9.6976  12.8772

          k = 0.7500-0.0833 0.7500 (   386 PWs)   bands (ev):

     1.4804   2.7710   3.9586   8.2241   9.9963  14.9998

          k = 0.6667 0.0000 0.6667 (   383 PWs)   bands (ev):

     1.0350   3.2875   3.5057   8.7289  10.5563  17.1734

          k = 0.0000 0.8333 0.0000 (   383 PWs)   bands (ev):

    -0.0619   4.0411   7.6359   7.6359   8.9694   9.7241

          k = 0.9167-0.0833 0.9167 (   385 PWs)   bands (ev):

     0.9330   2.9835   6.2453   7.5931   9.2506  10.6718

          k = 0.8333 0.0000 0.8333 (   381 PWs)   bands (ev):

     2.0273   2.2605   4.5585   7.7913   9.5065  12.7186

          k = 0.0000-1.0000 0.0000 (   388 PWs)   bands (ev):

     1.7720   1.9169   7.4734   7.4734   8.7907   9.5213

          k =-0.1667 0.3333 0.0000 (   374 PWs)   bands (ev):

    -3.6013   8.7751   8.7964  11.6246  13.0899  14.3610

          k =-0.2500 0.4167-0.0833 (   380 PWs)   bands (ev):

    -2.9331   6.5025   8.4025  10.9679  13.1379  14.6077

          k =-0.3333 0.5000-0.1667 (   384 PWs)   bands (ev):

    -2.0066   4.3724   8.2471  10.1631  12.8630  14.6029

          k = 0.5833-0.4167 0.7500 (   386 PWs)   bands (ev):

    -0.8456   2.4785   8.2857   9.4917  12.8240  13.9736

          k = 0.5000-0.3333 0.6667 (   384 PWs)   bands (ev):

     0.1739   1.2133   8.3789   9.1844  12.8867  13.6735

          k =-0.1667 0.5000 0.0000 (   383 PWs)   bands (ev):

    -2.7096   7.5827   7.6472   9.5656  11.9591  12.5868

          k =-0.2500 0.5833-0.0833 (   388 PWs)   bands (ev):

    -1.8700   5.4748   7.3368   8.6233  11.9856  13.7651

          k = 0.6667-0.3333 0.8333 (   390 PWs)   bands (ev):

    -0.7841   3.5168   7.1090   7.9879  11.9892  15.2329

          k = 0.5833-0.2500 0.7500 (   384 PWs)   bands (ev):

     0.4366   1.8957   6.6953   7.9995  12.2377  15.0667

          k = 0.5000-0.1667 0.6667 (   382 PWs)   bands (ev):

     0.0395   2.3764   6.3185   8.4451  12.7134  14.7251

          k = 0.4167-0.0833 0.5833 (   387 PWs)   bands (ev):

    -1.1741   4.1556   6.1407   9.1613  13.3596  14.6139

          k = 0.3333 0.0000 0.5000 (   384 PWs)   bands (ev):

    -2.1803   6.1702   6.2288  10.0762  13.9774  14.3725

          k =-0.1667 0.6667-0.0000 (   389 PWs)   bands (ev):

    -1.4695   6.2747   6.8141   7.4868  11.1259  11.5928

          k = 0.7500-0.2500 0.9167 (   388 PWs)   bands (ev):

    -0.4671   4.6857   5.8184   7.0419  11.2834  13.1477

          k = 0.6667-0.1667 0.8333 (   386 PWs)   bands (ev):

     0.7431   2.9981   5.0363   7.1629  11.4847  15.1329

          k = 0.5833-0.0833 0.7500 (   391 PWs)   bands (ev):

     1.1137   2.5714   4.4925   7.5849  11.9214  16.4664

          k = 0.5000 0.0000 0.6667 (   388 PWs)   bands (ev):

    -0.0990   4.1395   4.2537   8.2628  12.5829  16.3392

          k = 0.8333-0.1667 1.0000 (   386 PWs)   bands (ev):

     0.1066   4.1583   6.3131   6.6487  10.6195  11.0492

          k = 0.7500-0.0833 0.9167 (   386 PWs)   bands (ev):

     1.2518   3.2308   4.7080   6.6087  10.9402  12.8353

          k = 0.6667 0.0000 0.8333 (   386 PWs)   bands (ev):

     2.0941   2.7742   3.4627   6.9687  11.3164  15.0231

          k =-0.1667-1.0000 0.0000 (   384 PWs)   bands (ev):

     1.9159   2.0888   6.1447   6.4389  10.4493  10.8711

          k = 0.6667-0.3333 1.0000 (   397 PWs)   bands (ev):

    -0.9507   5.3119   5.3239   7.5716  13.5773  13.6116

          k = 0.5833-0.2500 0.9167 (   386 PWs)   bands (ev):

     0.2023   3.4716   5.3671   6.7760  13.6183  14.7646

          k = 0.5000-0.1667 0.8333 (   386 PWs)   bands (ev):

     1.2209   2.2173   5.4616   6.4297  13.6798  14.6429

          k = 0.6667-0.1667 1.0000 (   390 PWs)   bands (ev):

     0.6049   4.2845   4.8160   5.6409  13.0916  13.2332

          k = 0.5833-0.0833 0.9167 (   389 PWs)   bands (ev):

     1.8059   3.1142   4.1388   5.4725  13.4110  15.1594

          k = 0.5000 0.0000 0.8333 (   391 PWs)   bands (ev):

     1.3844   3.6276   3.7284   5.9479  13.8306  15.8798

          k =-0.3333-1.0000 0.0000 (   388 PWs)   bands (ev):

     2.2946   2.6034   4.6453   5.1555  12.9277  13.0936

          k =-0.5000-1.0000 0.0000 (   396 PWs)   bands (ev):

     2.5822   3.4566   3.4566   4.5504  14.8426  15.7228

     the Fermi energy is     3.6108 ev

!    total energy              =     -12.41785438 Ry
     estimated scf accuracy    <          1.4E-09 Ry
     smearing contrib. (-TS)   =       0.00010284 Ry
     internal energy E=F+TS    =     -12.41795722 Ry

     The total energy is F=E-TS. E is the sum of the following terms:
     one-electron contribution =       1.95815625 Ry
     hartree contribution      =       0.02487959 Ry
     xc contribution           =      -9.81613094 Ry
     ewald contribution        =      -4.58486212 Ry

     convergence has been achieved in   5 iterations

     Forces acting on atoms (cartesian axes, Ry/au):

     atom    1 type  1   force =     0.00000000    0.00000000    0.00000000

     Total force =     0.000000     Total SCF correction =     0.000000


     Computing stress (Cartesian axis) and pressure

          total   stress  (Ry/bohr**3)                   (kbar)     P=     -120.21
  -0.00081716  -0.00000000   0.00000000         -120.21       -0.00        0.00
   0.00000000  -0.00081716   0.00000000            0.00     -120.21        0.00
   0.00000000   0.00000000  -0.00081716            0.00        0.00     -120.21


     Writing all to output data dir /Users/zhy/Aluminum-from-First-Principles/convergence-runs/cutoff-kmesh/ecut-025.0-ry_k-12x12x12_degauss-0.050-ry/qe-out/aluminum_ecut-025p0-ry_k-12x12x12_degauss-0p050-ry.save/ :
     XML data file, charge density, pseudopotentials, collected wavefunctions

     init_run     :      0.25s CPU      0.25s WALL (       1 calls)
     electrons    :      0.72s CPU      0.74s WALL (       1 calls)
     forces       :      0.01s CPU      0.01s WALL (       1 calls)
     stress       :      0.02s CPU      0.02s WALL (       1 calls)

     Called by init_run:
     wfcinit      :      0.04s CPU      0.04s WALL (       1 calls)
     potinit      :      0.10s CPU      0.10s WALL (       1 calls)
     hinit0       :      0.10s CPU      0.10s WALL (       1 calls)

     Called by electrons:
     c_bands      :      0.59s CPU      0.61s WALL (       6 calls)
     sum_band     :      0.11s CPU      0.12s WALL (       6 calls)
     v_of_rho     :      0.02s CPU      0.02s WALL (       6 calls)
     newd         :      0.00s CPU      0.00s WALL (       6 calls)
     mix_rho      :      0.00s CPU      0.00s WALL (       6 calls)

     Called by c_bands:
     init_us_2    :      0.01s CPU      0.01s WALL (    1080 calls)
     cegterg      :      0.58s CPU      0.60s WALL (     432 calls)

     Called by *egterg:
     cdiaghg      :      0.04s CPU      0.04s WALL (    1651 calls)
     h_psi        :      0.54s CPU      0.55s WALL (    1795 calls)
     s_psi        :      0.00s CPU      0.00s WALL (    1795 calls)
     g_psi        :      0.00s CPU      0.00s WALL (    1291 calls)

     Called by h_psi:
     h_psi:calbec :      0.00s CPU      0.01s WALL (    1795 calls)
     vloc_psi     :      0.53s CPU      0.54s WALL (    1795 calls)
     add_vuspsi   :      0.00s CPU      0.00s WALL (    1795 calls)

     General routines
     calbec       :      0.01s CPU      0.01s WALL (    3451 calls)
     fft          :      0.09s CPU      0.09s WALL (     102 calls)
     ffts         :      0.09s CPU      0.09s WALL (      12 calls)
     fftw         :      0.56s CPU      0.57s WALL (   17150 calls)
     interpolate  :      0.09s CPU      0.10s WALL (       6 calls)

     Parallel routines

     PWSCF        :      1.01s CPU      1.05s WALL


   This run was terminated on:  23:45:22  22Sep2026            

=------------------------------------------------------------------------------=
   JOB DONE.
=------------------------------------------------------------------------------=
Note: The following floating-point exceptions are signalling: IEEE_UNDERFLOW_FLAG
Note: The following floating-point exceptions are signalling: IEEE_INVALID_FLAG IEEE_DIVIDE_BY_ZERO IEEE_UNDERFLOW_FLAG
