
     Program PWSCF v.7.6 starts on 22Sep2026 at 23:45:27 

     This program is part of the open-source Quantum ESPRESSO suite
     for quantum simulation of materials; please cite
         "P. Giannozzi et al., J. Phys.:Condens. Matter 21 395502 (2009);
         "P. Giannozzi et al., J. Phys.:Condens. Matter 29 465901 (2017);
         "P. Giannozzi et al., J. Chem. Phys. 152 154105 (2020);
          URL http://www.quantum-espresso.org", 
     in publications or presentations arising from this work. More details at
     http://www.quantum-espresso.org/quote

     Parallel version (MPI), running on     2 processors

     MPI processes distributed on     1 nodes
     0 MiB available memory on the printing compute node when the environment starts

     Reading input from Al.scf.inp

     Current dimensions of program PWSCF are:
     Max number of different atomic species (ntypx) = 10
     Max number of k-points (npk) =  40000
     Max angular momentum in pseudopotentials (lmaxx) =  4

     R & G space division:  proc/nbgrp/npool/nimage =       2
     Subspace diagonalization in iterative solution of the eigenvalue problem:
     a serial algorithm will be used


     Parallelization info
     --------------------
     sticks:   dense  smooth     PW     G-vecs:    dense   smooth      PW
     Min         336     168     60                 5786     2007     410
     Max         337     169     61                 5789     2008     411
     Sum         673     337    121                11575     4015     821

     Using Slab Decomposition



     bravais-lattice index     =            2
     lattice parameter (alat)  =       9.0000  a.u.
     unit-cell volume          =     182.2500 (a.u.)^3
     number of atoms/cell      =            1
     number of atomic types    =            1
     number of electrons       =         3.00
     number of Kohn-Sham states=            6
     kinetic-energy cutoff     =      30.0000  Ry
     charge density cutoff     =     240.0000  Ry
     scf convergence threshold =      1.0E-08
     mixing beta               =       0.7000
     number of iterations used =            8  plain     mixing
     Exchange-correlation= SLA  PW   PBE  PBE
                           (   1   4   3   4   0   0   0)

     celldm(1)=   9.000000  celldm(2)=   0.000000  celldm(3)=   0.000000
     celldm(4)=   0.000000  celldm(5)=   0.000000  celldm(6)=   0.000000

     crystal axes: (cart. coord. in units of alat)
               a(1) = (  -0.500000   0.000000   0.500000 )  
               a(2) = (   0.000000   0.500000   0.500000 )  
               a(3) = (  -0.500000   0.500000   0.000000 )  

     reciprocal axes: (cart. coord. in units 2 pi/alat)
               b(1) = ( -1.000000 -1.000000  1.000000 )  
               b(2) = (  1.000000  1.000000  1.000000 )  
               b(3) = ( -1.000000  1.000000 -1.000000 )  


     PseudoPot. # 1 for Al read from file:
     /Users/zhy/Aluminum-from-First-Principles/Al.pbe-n-van.UPF
     MD5 check sum: cbc97ad259b400557db688b98a6ada97
     Pseudo is Ultrasoft + core correction, Zval =  3.0
     Generated by new atomic code, or converted to UPF format
     Using radial grid of  893 points,  2 beta functions with: 
                l(1) =   0
                l(2) =   1
     Q(r) pseudized with  8 coefficients,  rinner =    0.900   0.900   0.900


     atomic species   valence    mass     pseudopotential
     Al                3.00    26.98200     Al( 1.00)

     48 Sym. Ops., with inversion, found



   Cartesian axes

     site n.     atom                  positions (alat units)
         1        Al     tau(   1) = (   0.0000000   0.0000000   0.0000000  )

     number of k points=    72  Methfessel-Paxton smearing, width (Ry)=  0.0500
                       cart. coord. in units 2pi/alat
        k(    1) = (   0.0000000   0.0000000   0.0000000), wk =   0.0011574
        k(    2) = (  -0.0833333   0.0833333  -0.0833333), wk =   0.0092593
        k(    3) = (  -0.1666667   0.1666667  -0.1666667), wk =   0.0092593
        k(    4) = (  -0.2500000   0.2500000  -0.2500000), wk =   0.0092593
        k(    5) = (  -0.3333333   0.3333333  -0.3333333), wk =   0.0092593
        k(    6) = (  -0.4166667   0.4166667  -0.4166667), wk =   0.0092593
        k(    7) = (   0.5000000  -0.5000000   0.5000000), wk =   0.0046296
        k(    8) = (   0.0000000   0.1666667   0.0000000), wk =   0.0069444
        k(    9) = (  -0.0833333   0.2500000  -0.0833333), wk =   0.0277778
        k(   10) = (  -0.1666667   0.3333333  -0.1666667), wk =   0.0277778
        k(   11) = (  -0.2500000   0.4166667  -0.2500000), wk =   0.0277778
        k(   12) = (  -0.3333333   0.5000000  -0.3333333), wk =   0.0277778
        k(   13) = (   0.5833333  -0.4166667   0.5833333), wk =   0.0277778
        k(   14) = (   0.5000000  -0.3333333   0.5000000), wk =   0.0277778
        k(   15) = (   0.4166667  -0.2500000   0.4166667), wk =   0.0277778
        k(   16) = (   0.3333333  -0.1666667   0.3333333), wk =   0.0277778
        k(   17) = (   0.2500000  -0.0833333   0.2500000), wk =   0.0277778
        k(   18) = (   0.1666667  -0.0000000   0.1666667), wk =   0.0138889
        k(   19) = (   0.0000000   0.3333333   0.0000000), wk =   0.0069444
        k(   20) = (  -0.0833333   0.4166667  -0.0833333), wk =   0.0277778
        k(   21) = (  -0.1666667   0.5000000  -0.1666667), wk =   0.0277778
        k(   22) = (  -0.2500000   0.5833333  -0.2500000), wk =   0.0277778
        k(   23) = (   0.6666667  -0.3333333   0.6666667), wk =   0.0277778
        k(   24) = (   0.5833333  -0.2500000   0.5833333), wk =   0.0277778
        k(   25) = (   0.5000000  -0.1666667   0.5000000), wk =   0.0277778
        k(   26) = (   0.4166667  -0.0833333   0.4166667), wk =   0.0277778
        k(   27) = (   0.3333333   0.0000000   0.3333333), wk =   0.0138889
        k(   28) = (   0.0000000   0.5000000   0.0000000), wk =   0.0069444
        k(   29) = (  -0.0833333   0.5833333  -0.0833333), wk =   0.0277778
        k(   30) = (  -0.1666667   0.6666667  -0.1666667), wk =   0.0277778
        k(   31) = (   0.7500000  -0.2500000   0.7500000), wk =   0.0277778
        k(   32) = (   0.6666667  -0.1666667   0.6666667), wk =   0.0277778
        k(   33) = (   0.5833333  -0.0833333   0.5833333), wk =   0.0277778
        k(   34) = (   0.5000000   0.0000000   0.5000000), wk =   0.0138889
        k(   35) = (   0.0000000   0.6666667   0.0000000), wk =   0.0069444
        k(   36) = (  -0.0833333   0.7500000  -0.0833333), wk =   0.0277778
        k(   37) = (   0.8333333  -0.1666667   0.8333333), wk =   0.0277778
        k(   38) = (   0.7500000  -0.0833333   0.7500000), wk =   0.0277778
        k(   39) = (   0.6666667   0.0000000   0.6666667), wk =   0.0138889
        k(   40) = (   0.0000000   0.8333333   0.0000000), wk =   0.0069444
        k(   41) = (   0.9166667  -0.0833333   0.9166667), wk =   0.0277778
        k(   42) = (   0.8333333   0.0000000   0.8333333), wk =   0.0138889
        k(   43) = (   0.0000000  -1.0000000   0.0000000), wk =   0.0034722
        k(   44) = (  -0.1666667   0.3333333   0.0000000), wk =   0.0277778
        k(   45) = (  -0.2500000   0.4166667  -0.0833333), wk =   0.0555556
        k(   46) = (  -0.3333333   0.5000000  -0.1666667), wk =   0.0555556
        k(   47) = (   0.5833333  -0.4166667   0.7500000), wk =   0.0555556
        k(   48) = (   0.5000000  -0.3333333   0.6666667), wk =   0.0277778
        k(   49) = (  -0.1666667   0.5000000   0.0000000), wk =   0.0277778
        k(   50) = (  -0.2500000   0.5833333  -0.0833333), wk =   0.0555556
        k(   51) = (   0.6666667  -0.3333333   0.8333333), wk =   0.0555556
        k(   52) = (   0.5833333  -0.2500000   0.7500000), wk =   0.0555556
        k(   53) = (   0.5000000  -0.1666667   0.6666667), wk =   0.0555556
        k(   54) = (   0.4166667  -0.0833333   0.5833333), wk =   0.0555556
        k(   55) = (   0.3333333   0.0000000   0.5000000), wk =   0.0277778
        k(   56) = (  -0.1666667   0.6666667  -0.0000000), wk =   0.0277778
        k(   57) = (   0.7500000  -0.2500000   0.9166667), wk =   0.0555556
        k(   58) = (   0.6666667  -0.1666667   0.8333333), wk =   0.0555556
        k(   59) = (   0.5833333  -0.0833333   0.7500000), wk =   0.0555556
        k(   60) = (   0.5000000   0.0000000   0.6666667), wk =   0.0277778
        k(   61) = (   0.8333333  -0.1666667   1.0000000), wk =   0.0277778
        k(   62) = (   0.7500000  -0.0833333   0.9166667), wk =   0.0555556
        k(   63) = (   0.6666667   0.0000000   0.8333333), wk =   0.0277778
        k(   64) = (  -0.1666667  -1.0000000   0.0000000), wk =   0.0138889
        k(   65) = (   0.6666667  -0.3333333   1.0000000), wk =   0.0277778
        k(   66) = (   0.5833333  -0.2500000   0.9166667), wk =   0.0555556
        k(   67) = (   0.5000000  -0.1666667   0.8333333), wk =   0.0277778
        k(   68) = (   0.6666667  -0.1666667   1.0000000), wk =   0.0277778
        k(   69) = (   0.5833333  -0.0833333   0.9166667), wk =   0.0555556
        k(   70) = (   0.5000000   0.0000000   0.8333333), wk =   0.0277778
        k(   71) = (  -0.3333333  -1.0000000   0.0000000), wk =   0.0138889
        k(   72) = (  -0.5000000  -1.0000000   0.0000000), wk =   0.0069444

     Dense  grid:    11575 G-vectors     FFT dimensions: (  32,  32,  32)

     Smooth grid:     4015 G-vectors     FFT dimensions: (  24,  24,  24)

     Estimated max dynamical RAM per process >       7.44 MB

     Estimated total dynamical RAM >      14.87 MB

     Initial potential from superposition of free atoms

     starting charge       2.9975, renormalised to       3.0000
     Starting wfcs are    4 randomized atomic wfcs +    2 random wfcs

     total cpu time spent up to now is        0.3 secs

     Self-consistent Calculation

     iteration #  1     ecut=    30.00 Ry     beta= 0.70
     Davidson diagonalization with overlap
     ethr =  1.00E-02,  avg # of iterations =  5.0

     Threshold (ethr) on eigenvalues was too large:
     Diagonalizing with lowered threshold

     Davidson diagonalization with overlap
     ethr =  1.81E-04,  avg # of iterations =  3.1

     total cpu time spent up to now is        0.6 secs

     total energy              =     -12.41880667 Ry
     estimated scf accuracy    <       0.00529595 Ry

     iteration #  2     ecut=    30.00 Ry     beta= 0.70
     Davidson diagonalization with overlap
     ethr =  1.77E-04,  avg # of iterations =  1.0

     total cpu time spent up to now is        0.7 secs

     total energy              =     -12.41893374 Ry
     estimated scf accuracy    <       0.00024565 Ry

     iteration #  3     ecut=    30.00 Ry     beta= 0.70
     Davidson diagonalization with overlap
     ethr =  8.19E-06,  avg # of iterations =  3.8

     total cpu time spent up to now is        0.8 secs

     total energy              =     -12.41896614 Ry
     estimated scf accuracy    <       0.00000105 Ry

     iteration #  4     ecut=    30.00 Ry     beta= 0.70
     Davidson diagonalization with overlap
     c_bands:  1 eigenvalues not converged
     ethr =  3.49E-08,  avg # of iterations =  3.2

     total cpu time spent up to now is        1.0 secs

     total energy              =     -12.41896738 Ry
     estimated scf accuracy    <       0.00000006 Ry

     iteration #  5     ecut=    30.00 Ry     beta= 0.70
     Davidson diagonalization with overlap
     ethr =  1.93E-09,  avg # of iterations =  1.5

     total cpu time spent up to now is        1.1 secs

     End of self-consistent calculation

          k = 0.0000 0.0000 0.0000 (   531 PWs)   bands (ev):

    -4.4994  12.4233  12.4233  12.4233  13.9235  13.9235

          k =-0.0833 0.0833-0.0833 (   531 PWs)   bands (ev):

    -4.3646  10.8554  12.0657  12.0657  14.2131  14.4339

          k =-0.1667 0.1667-0.1667 (   519 PWs)   bands (ev):

    -3.9609   8.4929  11.5434  11.5435  14.0516  15.1197

          k =-0.2500 0.2500-0.2500 (   510 PWs)   bands (ev):

    -3.2913   6.1726  11.1570  11.1570  13.8067  14.7317

          k =-0.3333 0.3333-0.3333 (   504 PWs)   bands (ev):

    -2.3633   4.0334  10.9370  10.9371  13.6618  13.9442

          k =-0.4167 0.4167-0.4167 (   498 PWs)   bands (ev):

    -1.2012   2.1345  10.8542  10.8542  13.3626  13.3626

          k = 0.5000-0.5000 0.5000 (   502 PWs)   bands (ev):

    -0.1824   0.8686  10.8382  10.8382  13.1488  13.6325

          k = 0.0000 0.1667 0.0000 (   532 PWs)   bands (ev):

    -4.3197  11.3319  11.3319  11.8798  12.9751  15.2377

          k =-0.0833 0.2500-0.0833 (   515 PWs)   bands (ev):

    -4.0054   9.3675  10.7001  11.5815  13.1740  15.4180

          k =-0.1667 0.3333-0.1667 (   511 PWs)   bands (ev):

    -3.4245   7.0333  10.2640  11.0783  13.3049  14.9477

          k =-0.2500 0.4167-0.2500 (   506 PWs)   bands (ev):

    -2.5818   4.8318  10.0448  10.6066  12.7172  14.8681

          k =-0.3333 0.5000-0.3333 (   506 PWs)   bands (ev):

    -1.4927   2.8479  10.0421  10.1442  12.3653  14.5472

          k = 0.5833-0.4167 0.5833 (   504 PWs)   bands (ev):

    -0.2702   1.2155   9.7102  10.2440  12.4196  13.9776

          k = 0.5000-0.3333 0.5000 (   504 PWs)   bands (ev):

    -0.6638   1.6914   9.3946  10.6211  12.8259  13.6862

          k = 0.4167-0.2500 0.4167 (   508 PWs)   bands (ev):

    -1.8813   3.4820   9.2604  11.1147  13.5128  13.7275

          k = 0.3333-0.1667 0.3333 (   503 PWs)   bands (ev):

    -2.8913   5.5454   9.3392  11.6500  14.1328  14.3540

          k = 0.2500-0.0833 0.2500 (   513 PWs)   bands (ev):

    -3.6477   7.8069   9.6387  12.1568  14.6183  14.6265

          k = 0.1667-0.0000 0.1667 (   519 PWs)   bands (ev):

    -4.1400  10.1225  10.1914  12.4629  14.2722  14.5040

          k = 0.0000 0.3333 0.0000 (   516 PWs)   bands (ev):

    -3.7813   9.9857   9.9857  10.6190  11.5586  13.8455

          k =-0.0833 0.4167-0.0833 (   510 PWs)   bands (ev):

    -3.2897   8.0742   9.4768  10.0974  11.7112  13.0861

          k =-0.1667 0.5000-0.1667 (   503 PWs)   bands (ev):

    -2.5346   5.8583   9.1939   9.3331  11.4082  14.1100

          k =-0.2500 0.5833-0.2500 (   510 PWs)   bands (ev):

    -1.5265   3.8116   8.5553   9.1397  11.1847  15.5625

          k = 0.6667-0.3333 0.6667 (   508 PWs)   bands (ev):

    -0.3105   2.0288   7.8903   9.3143  11.2928  15.6042

          k = 0.5833-0.2500 0.5833 (   505 PWs)   bands (ev):

     0.0808   1.5572   7.4112   9.7114  11.7026  15.1494

          k = 0.5000-0.1667 0.5000 (   507 PWs)   bands (ev):

    -1.1407   3.1871   7.1530  10.3092  12.3812  14.9444

          k = 0.4167-0.0833 0.4167 (   509 PWs)   bands (ev):

    -2.2276   5.1626   7.1307  11.0641  13.2985  15.0151

          k = 0.3333 0.0000 0.3333 (   503 PWs)   bands (ev):

    -3.0680   7.3266   7.3711  11.8429  14.3868  15.3116

          k = 0.0000 0.5000 0.0000 (   504 PWs)   bands (ev):

    -2.8878   8.7842   8.8922   8.8922  10.3628  11.6126

          k =-0.0833 0.5833-0.0833 (   504 PWs)   bands (ev):

    -2.2220   6.9843   8.0097   8.5334  10.4091  11.7486

          k =-0.1667 0.6667-0.1667 (   505 PWs)   bands (ev):

    -1.2992   4.9741   6.9739   8.4090  10.2737  13.3263

          k = 0.7500-0.2500 0.7500 (   504 PWs)   bands (ev):

    -0.1427   3.1245   6.1330   8.5184  10.3612  15.2209

          k = 0.6667-0.1667 0.6667 (   505 PWs)   bands (ev):

     0.8714   1.8793   5.5219   8.8599  10.7222  17.0127

          k = 0.5833-0.0833 0.5833 (   509 PWs)   bands (ev):

    -0.1542   3.1522   5.1539   9.4244  11.3480  16.6564

          k = 0.5000 0.0000 0.5000 (   512 PWs)   bands (ev):

    -1.3073   4.9799   5.0838  10.1865  12.2202  16.3413

          k = 0.0000 0.6667 0.0000 (   500 PWs)   bands (ev):

    -1.6457   6.4319   8.0984   8.0984   9.4875  10.3462

          k =-0.0833 0.7500-0.0833 (   500 PWs)   bands (ev):

    -0.8106   5.2320   6.6309   7.8977   9.6159  11.0055

          k = 0.8333-0.1667 0.8333 (   503 PWs)   bands (ev):

     0.2681   4.0527   4.9719   7.9324   9.6813  12.8486

          k = 0.7500-0.0833 0.7500 (   502 PWs)   bands (ev):

     1.4765   2.7648   3.9509   8.2044   9.9799  14.9680

          k = 0.6667 0.0000 0.6667 (   506 PWs)   bands (ev):

     1.0309   3.2799   3.4984   8.7064  10.5379  17.1382

          k = 0.0000 0.8333 0.0000 (   496 PWs)   bands (ev):

    -0.0649   4.0330   7.6187   7.6187   8.9573   9.7063

          k = 0.9167-0.0833 0.9167 (   494 PWs)   bands (ev):

     0.9287   2.9779   6.2326   7.5774   9.2374  10.6515

          k = 0.8333 0.0000 0.8333 (   496 PWs)   bands (ev):

     2.0227   2.2538   4.5507   7.7738   9.4918  12.6885

          k = 0.0000-1.0000 0.0000 (   492 PWs)   bands (ev):

     1.7684   1.9112   7.4583   7.4583   8.7798   9.5049

          k =-0.1667 0.3333 0.0000 (   517 PWs)   bands (ev):

    -3.6027   8.7530   8.7779  11.5846  13.0664  14.3418

          k =-0.2500 0.4167-0.0833 (   509 PWs)   bands (ev):

    -2.9345   6.4894   8.3849  10.9353  13.1167  14.5792

          k =-0.3333 0.5000-0.1667 (   511 PWs)   bands (ev):

    -2.0085   4.3646   8.2272  10.1380  12.8414  14.5708

          k = 0.5833-0.4167 0.7500 (   508 PWs)   bands (ev):

    -0.8482   2.4735   8.2671   9.4711  12.8019  13.9462

          k = 0.5000-0.3333 0.6667 (   508 PWs)   bands (ev):

     0.1715   1.2082   8.3570   9.1657  12.8631  13.6479

          k =-0.1667 0.5000 0.0000 (   508 PWs)   bands (ev):

    -2.7110   7.5665   7.6322   9.5407  11.9386  12.5628

          k =-0.2500 0.5833-0.0833 (   510 PWs)   bands (ev):

    -1.8719   5.4663   7.3196   8.6066  11.9639  13.7387

          k = 0.6667-0.3333 0.8333 (   504 PWs)   bands (ev):

    -0.7865   3.5111   7.0931   7.9735  11.9690  15.2032

          k = 0.5833-0.2500 0.7500 (   502 PWs)   bands (ev):

     0.4336   1.8907   6.6786   7.9834  12.2145  15.0383

          k = 0.5000-0.1667 0.6667 (   505 PWs)   bands (ev):

     0.0363   2.3708   6.3038   8.4275  12.6871  14.6962

          k = 0.4167-0.0833 0.5833 (   507 PWs)   bands (ev):

    -1.1767   4.1489   6.1290   9.1413  13.3332  14.5874

          k = 0.3333 0.0000 0.5000 (   507 PWs)   bands (ev):

    -2.1821   6.1589   6.2169  10.0513  13.9486  14.3492

          k =-0.1667 0.6667-0.0000 (   505 PWs)   bands (ev):

    -1.4718   6.2636   6.8019   7.4748  11.1081  11.5672

          k = 0.7500-0.2500 0.9167 (   502 PWs)   bands (ev):

    -0.4695   4.6774   5.8082   7.0278  11.2626  13.1226

          k = 0.6667-0.1667 0.8333 (   502 PWs)   bands (ev):

     0.7391   2.9920   5.0271   7.1491  11.4627  15.1011

          k = 0.5833-0.0833 0.7500 (   507 PWs)   bands (ev):

     1.1101   2.5654   4.4848   7.5703  11.8987  16.4343

          k = 0.5000 0.0000 0.6667 (   509 PWs)   bands (ev):

    -0.1019   4.1315   4.2462   8.2446  12.5571  16.3424

          k = 0.8333-0.1667 1.0000 (   498 PWs)   bands (ev):

     0.1038   4.1502   6.3003   6.6352  10.6030  11.0243

          k = 0.7500-0.0833 0.9167 (   497 PWs)   bands (ev):

     1.2473   3.2241   4.7007   6.5961  10.9196  12.8069

          k = 0.6667 0.0000 0.8333 (   499 PWs)   bands (ev):

     2.0899   2.7671   3.4557   6.9552  11.2956  14.9909

          k =-0.1667-1.0000 0.0000 (   494 PWs)   bands (ev):

     1.9118   2.0826   6.1323   6.4256  10.4345  10.8482

          k = 0.6667-0.3333 1.0000 (   501 PWs)   bands (ev):

    -0.9525   5.3040   5.3157   7.5594  13.5576  13.5845

          k = 0.5833-0.2500 0.9167 (   500 PWs)   bands (ev):

     0.1987   3.4654   5.3569   6.7634  13.5905  14.7379

          k = 0.5000-0.1667 0.8333 (   500 PWs)   bands (ev):

     1.2173   2.2110   5.4504   6.4187  13.6531  14.6172

          k = 0.6667-0.1667 1.0000 (   503 PWs)   bands (ev):

     0.6014   4.2761   4.8074   5.6320  13.0710  13.2015

          k = 0.5833-0.0833 0.9167 (   505 PWs)   bands (ev):

     1.8011   3.1073   4.1312   5.4643  13.3848  15.1285

          k = 0.5000 0.0000 0.8333 (   503 PWs)   bands (ev):

     1.3802   3.6206   3.7218   5.9393  13.8030  15.9694

          k =-0.3333-1.0000 0.0000 (   506 PWs)   bands (ev):

     2.2896   2.5959   4.6376   5.1477  12.9075  13.0614

          k =-0.5000-1.0000 0.0000 (   516 PWs)   bands (ev):

     2.5776   3.4495   3.4495   4.5429  14.8076  15.6990

     the Fermi energy is     3.6042 ev

!    total energy              =     -12.41896738 Ry
     estimated scf accuracy    <          1.4E-09 Ry
     smearing contrib. (-TS)   =       0.00010127 Ry
     internal energy E=F+TS    =     -12.41906865 Ry

     The total energy is F=E-TS. E is the sum of the following terms:
     one-electron contribution =       1.95883514 Ry
     hartree contribution      =       0.02503484 Ry
     xc contribution           =      -9.81807656 Ry
     ewald contribution        =      -4.58486207 Ry

     convergence has been achieved in   5 iterations

     Forces acting on atoms (cartesian axes, Ry/au):

     atom    1 type  1   force =     0.00000000    0.00000000    0.00000000

     Total force =     0.000000     Total SCF correction =     0.000000


     Computing stress (Cartesian axis) and pressure

          total   stress  (Ry/bohr**3)                   (kbar)     P=     -118.64
  -0.00080651  -0.00000000  -0.00000000         -118.64       -0.00       -0.00
   0.00000000  -0.00080651   0.00000000            0.00     -118.64        0.00
  -0.00000000   0.00000000  -0.00080651           -0.00        0.00     -118.64


     Writing all to output data dir /Users/zhy/Aluminum-from-First-Principles/convergence-runs/cutoff-kmesh/ecut-030.0-ry_k-12x12x12_degauss-0.050-ry/qe-out/aluminum_ecut-030p0-ry_k-12x12x12_degauss-0p050-ry.save/ :
     XML data file, charge density, pseudopotentials, collected wavefunctions

     init_run     :      0.25s CPU      0.25s WALL (       1 calls)
     electrons    :      0.77s CPU      0.82s WALL (       1 calls)
     forces       :      0.01s CPU      0.01s WALL (       1 calls)
     stress       :      0.03s CPU      0.03s WALL (       1 calls)

     Called by init_run:
     wfcinit      :      0.04s CPU      0.04s WALL (       1 calls)
     potinit      :      0.10s CPU      0.10s WALL (       1 calls)
     hinit0       :      0.10s CPU      0.10s WALL (       1 calls)

     Called by electrons:
     c_bands      :      0.62s CPU      0.64s WALL (       6 calls)
     sum_band     :      0.13s CPU      0.15s WALL (       6 calls)
     v_of_rho     :      0.02s CPU      0.02s WALL (       6 calls)
     newd         :      0.00s CPU      0.00s WALL (       6 calls)
     mix_rho      :      0.00s CPU      0.00s WALL (       6 calls)

     Called by c_bands:
     init_us_2    :      0.01s CPU      0.01s WALL (    1080 calls)
     cegterg      :      0.61s CPU      0.63s WALL (     432 calls)

     Called by *egterg:
     cdiaghg      :      0.03s CPU      0.04s WALL (    1623 calls)
     h_psi        :      0.56s CPU      0.58s WALL (    1767 calls)
     s_psi        :      0.00s CPU      0.00s WALL (    1767 calls)
     g_psi        :      0.00s CPU      0.00s WALL (    1263 calls)

     Called by h_psi:
     h_psi:calbec :      0.01s CPU      0.01s WALL (    1767 calls)
     vloc_psi     :      0.55s CPU      0.56s WALL (    1767 calls)
     add_vuspsi   :      0.00s CPU      0.00s WALL (    1767 calls)

     General routines
     calbec       :      0.01s CPU      0.02s WALL (    3423 calls)
     fft          :      0.08s CPU      0.09s WALL (     102 calls)
     ffts         :      0.09s CPU      0.09s WALL (      12 calls)
     fftw         :      0.58s CPU      0.61s WALL (   17184 calls)
     interpolate  :      0.09s CPU      0.09s WALL (       6 calls)

     Parallel routines

     PWSCF        :      1.07s CPU      1.14s WALL


   This run was terminated on:  23:45:29  22Sep2026            

=------------------------------------------------------------------------------=
   JOB DONE.
=------------------------------------------------------------------------------=
Note: The following floating-point exceptions are signalling: IEEE_UNDERFLOW_FLAG
Note: The following floating-point exceptions are signalling: IEEE_INVALID_FLAG IEEE_DIVIDE_BY_ZERO IEEE_UNDERFLOW_FLAG
