
     Program PWSCF v.7.6 starts on 22Sep2026 at 23:45:26 

     This program is part of the open-source Quantum ESPRESSO suite
     for quantum simulation of materials; please cite
         "P. Giannozzi et al., J. Phys.:Condens. Matter 21 395502 (2009);
         "P. Giannozzi et al., J. Phys.:Condens. Matter 29 465901 (2017);
         "P. Giannozzi et al., J. Chem. Phys. 152 154105 (2020);
          URL http://www.quantum-espresso.org", 
     in publications or presentations arising from this work. More details at
     http://www.quantum-espresso.org/quote

     Parallel version (MPI), running on     2 processors

     MPI processes distributed on     1 nodes
     0 MiB available memory on the printing compute node when the environment starts

     Reading input from Al.scf.inp

     Current dimensions of program PWSCF are:
     Max number of different atomic species (ntypx) = 10
     Max number of k-points (npk) =  40000
     Max angular momentum in pseudopotentials (lmaxx) =  4

     R & G space division:  proc/nbgrp/npool/nimage =       2
     Subspace diagonalization in iterative solution of the eigenvalue problem:
     a serial algorithm will be used


     Parallelization info
     --------------------
     sticks:   dense  smooth     PW     G-vecs:    dense   smooth      PW
     Min         336     168     60                 5786     2007     410
     Max         337     169     61                 5789     2008     411
     Sum         673     337    121                11575     4015     821

     Using Slab Decomposition



     bravais-lattice index     =            2
     lattice parameter (alat)  =       9.0000  a.u.
     unit-cell volume          =     182.2500 (a.u.)^3
     number of atoms/cell      =            1
     number of atomic types    =            1
     number of electrons       =         3.00
     number of Kohn-Sham states=            6
     kinetic-energy cutoff     =      30.0000  Ry
     charge density cutoff     =     240.0000  Ry
     scf convergence threshold =      1.0E-08
     mixing beta               =       0.7000
     number of iterations used =            8  plain     mixing
     Exchange-correlation= SLA  PW   PBE  PBE
                           (   1   4   3   4   0   0   0)

     celldm(1)=   9.000000  celldm(2)=   0.000000  celldm(3)=   0.000000
     celldm(4)=   0.000000  celldm(5)=   0.000000  celldm(6)=   0.000000

     crystal axes: (cart. coord. in units of alat)
               a(1) = (  -0.500000   0.000000   0.500000 )  
               a(2) = (   0.000000   0.500000   0.500000 )  
               a(3) = (  -0.500000   0.500000   0.000000 )  

     reciprocal axes: (cart. coord. in units 2 pi/alat)
               b(1) = ( -1.000000 -1.000000  1.000000 )  
               b(2) = (  1.000000  1.000000  1.000000 )  
               b(3) = ( -1.000000  1.000000 -1.000000 )  


     PseudoPot. # 1 for Al read from file:
     /Users/zhy/Aluminum-from-First-Principles/Al.pbe-n-van.UPF
     MD5 check sum: cbc97ad259b400557db688b98a6ada97
     Pseudo is Ultrasoft + core correction, Zval =  3.0
     Generated by new atomic code, or converted to UPF format
     Using radial grid of  893 points,  2 beta functions with: 
                l(1) =   0
                l(2) =   1
     Q(r) pseudized with  8 coefficients,  rinner =    0.900   0.900   0.900


     atomic species   valence    mass     pseudopotential
     Al                3.00    26.98200     Al( 1.00)

     48 Sym. Ops., with inversion, found



   Cartesian axes

     site n.     atom                  positions (alat units)
         1        Al     tau(   1) = (   0.0000000   0.0000000   0.0000000  )

     number of k points=    29  Methfessel-Paxton smearing, width (Ry)=  0.0500
                       cart. coord. in units 2pi/alat
        k(    1) = (   0.0000000   0.0000000   0.0000000), wk =   0.0039062
        k(    2) = (  -0.1250000   0.1250000  -0.1250000), wk =   0.0312500
        k(    3) = (  -0.2500000   0.2500000  -0.2500000), wk =   0.0312500
        k(    4) = (  -0.3750000   0.3750000  -0.3750000), wk =   0.0312500
        k(    5) = (   0.5000000  -0.5000000   0.5000000), wk =   0.0156250
        k(    6) = (   0.0000000   0.2500000   0.0000000), wk =   0.0234375
        k(    7) = (  -0.1250000   0.3750000  -0.1250000), wk =   0.0937500
        k(    8) = (  -0.2500000   0.5000000  -0.2500000), wk =   0.0937500
        k(    9) = (   0.6250000  -0.3750000   0.6250000), wk =   0.0937500
        k(   10) = (   0.5000000  -0.2500000   0.5000000), wk =   0.0937500
        k(   11) = (   0.3750000  -0.1250000   0.3750000), wk =   0.0937500
        k(   12) = (   0.2500000   0.0000000   0.2500000), wk =   0.0468750
        k(   13) = (   0.0000000   0.5000000   0.0000000), wk =   0.0234375
        k(   14) = (  -0.1250000   0.6250000  -0.1250000), wk =   0.0937500
        k(   15) = (   0.7500000  -0.2500000   0.7500000), wk =   0.0937500
        k(   16) = (   0.6250000  -0.1250000   0.6250000), wk =   0.0937500
        k(   17) = (   0.5000000   0.0000000   0.5000000), wk =   0.0468750
        k(   18) = (   0.0000000   0.7500000   0.0000000), wk =   0.0234375
        k(   19) = (   0.8750000  -0.1250000   0.8750000), wk =   0.0937500
        k(   20) = (   0.7500000   0.0000000   0.7500000), wk =   0.0468750
        k(   21) = (   0.0000000  -1.0000000   0.0000000), wk =   0.0117188
        k(   22) = (  -0.2500000   0.5000000   0.0000000), wk =   0.0937500
        k(   23) = (   0.6250000  -0.3750000   0.8750000), wk =   0.1875000
        k(   24) = (   0.5000000  -0.2500000   0.7500000), wk =   0.0937500
        k(   25) = (   0.7500000  -0.2500000   1.0000000), wk =   0.0937500
        k(   26) = (   0.6250000  -0.1250000   0.8750000), wk =   0.1875000
        k(   27) = (   0.5000000   0.0000000   0.7500000), wk =   0.0937500
        k(   28) = (  -0.2500000  -1.0000000   0.0000000), wk =   0.0468750
        k(   29) = (  -0.5000000  -1.0000000   0.0000000), wk =   0.0234375

     Dense  grid:    11575 G-vectors     FFT dimensions: (  32,  32,  32)

     Smooth grid:     4015 G-vectors     FFT dimensions: (  24,  24,  24)

     Estimated max dynamical RAM per process >       6.44 MB

     Estimated total dynamical RAM >      12.88 MB

     Initial potential from superposition of free atoms

     starting charge       2.9975, renormalised to       3.0000
     Starting wfcs are    4 randomized atomic wfcs +    2 random wfcs

     total cpu time spent up to now is        0.2 secs

     Self-consistent Calculation

     iteration #  1     ecut=    30.00 Ry     beta= 0.70
     Davidson diagonalization with overlap
     ethr =  1.00E-02,  avg # of iterations =  5.5

     Threshold (ethr) on eigenvalues was too large:
     Diagonalizing with lowered threshold

     Davidson diagonalization with overlap
     ethr =  1.80E-04,  avg # of iterations =  2.6

     total cpu time spent up to now is        0.4 secs

     total energy              =     -12.41773297 Ry
     estimated scf accuracy    <       0.00525273 Ry

     iteration #  2     ecut=    30.00 Ry     beta= 0.70
     Davidson diagonalization with overlap
     ethr =  1.75E-04,  avg # of iterations =  1.0

     total cpu time spent up to now is        0.4 secs

     total energy              =     -12.41785498 Ry
     estimated scf accuracy    <       0.00024473 Ry

     iteration #  3     ecut=    30.00 Ry     beta= 0.70
     Davidson diagonalization with overlap
     ethr =  8.16E-06,  avg # of iterations =  4.0

     total cpu time spent up to now is        0.5 secs

     total energy              =     -12.41788709 Ry
     estimated scf accuracy    <       0.00000108 Ry

     iteration #  4     ecut=    30.00 Ry     beta= 0.70
     Davidson diagonalization with overlap
     ethr =  3.60E-08,  avg # of iterations =  3.2

     total cpu time spent up to now is        0.5 secs

     total energy              =     -12.41788838 Ry
     estimated scf accuracy    <       0.00000007 Ry

     iteration #  5     ecut=    30.00 Ry     beta= 0.70
     Davidson diagonalization with overlap
     ethr =  2.17E-09,  avg # of iterations =  1.3

     total cpu time spent up to now is        0.6 secs

     End of self-consistent calculation

          k = 0.0000 0.0000 0.0000 (   531 PWs)   bands (ev):

    -4.4989  12.4242  12.4242  12.4242  13.9239  13.9240

          k =-0.1250 0.1250-0.1250 (   522 PWs)   bands (ev):

    -4.1956   9.6866  11.7955  11.7956  14.1703  14.8429

          k =-0.2500 0.2500-0.2500 (   510 PWs)   bands (ev):

    -3.2907   6.1732  11.1578  11.1578  13.8075  14.7323

          k =-0.3750 0.3750-0.3750 (   498 PWs)   bands (ev):

    -1.8073   3.0492  10.8840  10.8840  13.6152  13.6365

          k = 0.5000-0.5000 0.5000 (   502 PWs)   bands (ev):

    -0.1817   0.8691  10.8391  10.8391  13.1491  13.6341

          k = 0.0000 0.2500 0.0000 (   516 PWs)   bands (ev):

    -4.0945  10.6347  10.6347  11.3152  12.2546  15.2513

          k =-0.1250 0.3750-0.1250 (   510 PWs)   bands (ev):

    -3.3900   7.5394   9.8489  10.6263  12.5162  14.1569

          k =-0.2500 0.5000-0.2500 (   509 PWs)   bands (ev):

    -2.0961   4.2812   9.5603   9.6886  11.8383  15.4529

          k = 0.6250-0.3750 0.6250 (   506 PWs)   bands (ev):

    -0.3107   1.5802   8.8120   9.7740  11.8427  14.7392

          k = 0.5000-0.2500 0.5000 (   504 PWs)   bands (ev):

    -0.9362   2.3906   8.2792  10.4521  12.5766  14.2535

          k = 0.3750-0.1250 0.3750 (   507 PWs)   bands (ev):

    -2.5916   5.3236   8.2335  11.4528  13.8768  14.4293

          k = 0.2500 0.0000 0.2500 (   515 PWs)   bands (ev):

    -3.6918   8.7071   8.7132  12.3337  14.7071  14.9322

          k = 0.0000 0.5000 0.0000 (   504 PWs)   bands (ev):

    -2.8872   8.7851   8.8928   8.8928  10.3631  11.6132

          k =-0.1250 0.6250-0.1250 (   507 PWs)   bands (ev):

    -1.7915   5.9706   7.4719   8.4427  10.3274  12.4675

          k = 0.7500-0.2500 0.7500 (   504 PWs)   bands (ev):

    -0.1421   3.1250   6.1336   8.5190  10.3618  15.2217

          k = 0.6250-0.1250 0.6250 (   512 PWs)   bands (ev):

     0.4686   2.3467   5.3073   9.1154  11.0032  16.8029

          k = 0.5000 0.0000 0.5000 (   512 PWs)   bands (ev):

    -1.3068   4.9804   5.0845  10.1872  12.2208  16.3419

          k = 0.0000 0.7500 0.0000 (   496 PWs)   bands (ev):

    -0.8958   5.2157   7.8194   7.8194   9.1789   9.9664

          k = 0.8750-0.1250 0.8750 (   498 PWs)   bands (ev):

     0.5680   3.5974   5.4743   7.7259   9.4352  11.7078

          k = 0.7500 0.0000 0.7500 (   504 PWs)   bands (ev):

     2.0084   2.6820   3.3859   8.1657   9.9337  14.9348

          k = 0.0000-1.0000 0.0000 (   492 PWs)   bands (ev):

     1.7692   1.9116   7.4589   7.4589   8.7801   9.5057

          k =-0.2500 0.5000 0.0000 (   509 PWs)   bands (ev):

    -2.4898   6.8642   6.8745   9.7943  13.1008  13.4218

          k = 0.6250-0.3750 0.8750 (   510 PWs)   bands (ev):

    -1.0134   3.7996   6.7132   8.4316  13.0589  14.5654

          k = 0.5000-0.2500 0.7500 (   502 PWs)   bands (ev):

     0.6115   1.6304   6.8461   7.7662  13.1546  14.0622

          k = 0.7500-0.2500 1.0000 (   492 PWs)   bands (ev):

    -0.5101   5.1918   5.7317   6.5039  11.9999  12.2906

          k = 0.6250-0.1250 0.8750 (   501 PWs)   bands (ev):

     1.2565   3.0204   4.5525   6.2721  12.3943  15.0973

          k = 0.5000 0.0000 0.7500 (   505 PWs)   bands (ev):

     0.6129   3.8340   3.9464   7.0587  13.1432  16.0462

          k =-0.2500-1.0000 0.0000 (   494 PWs)   bands (ev):

     2.0815   2.2971   5.3515   5.7439  11.6256  11.9217

          k =-0.5000-1.0000 0.0000 (   516 PWs)   bands (ev):

     2.5785   3.4499   3.4499   4.5434  14.8090  15.6997

     the Fermi energy is     3.6041 ev

!    total energy              =     -12.41788839 Ry
     estimated scf accuracy    <          1.7E-09 Ry
     smearing contrib. (-TS)   =      -0.00100905 Ry
     internal energy E=F+TS    =     -12.41687933 Ry

     The total energy is F=E-TS. E is the sum of the following terms:
     one-electron contribution =       1.96109316 Ry
     hartree contribution      =       0.02517032 Ry
     xc contribution           =      -9.81828074 Ry
     ewald contribution        =      -4.58486207 Ry

     convergence has been achieved in   5 iterations

     Forces acting on atoms (cartesian axes, Ry/au):

     atom    1 type  1   force =     0.00000000    0.00000000    0.00000000

     Total force =     0.000000     Total SCF correction =     0.000000


     Computing stress (Cartesian axis) and pressure

          total   stress  (Ry/bohr**3)                   (kbar)     P=     -117.06
  -0.00079573  -0.00000000  -0.00000000         -117.06       -0.00       -0.00
  -0.00000000  -0.00079573   0.00000000           -0.00     -117.06        0.00
  -0.00000000   0.00000000  -0.00079573           -0.00        0.00     -117.06


     Writing all to output data dir /Users/zhy/Aluminum-from-First-Principles/convergence-runs/cutoff-kmesh/ecut-030.0-ry_k-08x08x08_degauss-0.050-ry/qe-out/aluminum_ecut-030p0-ry_k-08x08x08_degauss-0p050-ry.save/ :
     XML data file, charge density, pseudopotentials, collected wavefunctions

     init_run     :      0.22s CPU      0.23s WALL (       1 calls)
     electrons    :      0.32s CPU      0.33s WALL (       1 calls)
     forces       :      0.01s CPU      0.01s WALL (       1 calls)
     stress       :      0.02s CPU      0.02s WALL (       1 calls)

     Called by init_run:
     wfcinit      :      0.02s CPU      0.02s WALL (       1 calls)
     potinit      :      0.10s CPU      0.10s WALL (       1 calls)
     hinit0       :      0.10s CPU      0.10s WALL (       1 calls)

     Called by electrons:
     c_bands      :      0.25s CPU      0.26s WALL (       6 calls)
     sum_band     :      0.05s CPU      0.05s WALL (       6 calls)
     v_of_rho     :      0.02s CPU      0.02s WALL (       6 calls)
     newd         :      0.00s CPU      0.00s WALL (       6 calls)
     mix_rho      :      0.00s CPU      0.00s WALL (       6 calls)

     Called by c_bands:
     init_us_2    :      0.01s CPU      0.01s WALL (     435 calls)
     cegterg      :      0.24s CPU      0.25s WALL (     174 calls)

     Called by *egterg:
     cdiaghg      :      0.01s CPU      0.01s WALL (     657 calls)
     h_psi        :      0.22s CPU      0.23s WALL (     715 calls)
     s_psi        :      0.00s CPU      0.00s WALL (     715 calls)
     g_psi        :      0.00s CPU      0.00s WALL (     512 calls)

     Called by h_psi:
     h_psi:calbec :      0.00s CPU      0.00s WALL (     715 calls)
     vloc_psi     :      0.22s CPU      0.23s WALL (     715 calls)
     add_vuspsi   :      0.00s CPU      0.00s WALL (     715 calls)

     General routines
     calbec       :      0.00s CPU      0.00s WALL (    1382 calls)
     fft          :      0.08s CPU      0.08s WALL (     102 calls)
     ffts         :      0.09s CPU      0.09s WALL (      12 calls)
     fftw         :      0.23s CPU      0.24s WALL (    6888 calls)
     interpolate  :      0.09s CPU      0.09s WALL (       6 calls)

     Parallel routines

     PWSCF        :      0.58s CPU      0.60s WALL


   This run was terminated on:  23:45:26  22Sep2026            

=------------------------------------------------------------------------------=
   JOB DONE.
=------------------------------------------------------------------------------=
Note: The following floating-point exceptions are signalling: IEEE_UNDERFLOW_FLAG
Note: The following floating-point exceptions are signalling: IEEE_INVALID_FLAG IEEE_DIVIDE_BY_ZERO IEEE_UNDERFLOW_FLAG
