
     Program PWSCF v.7.6 starts on 22Sep2026 at 23:45:39 

     This program is part of the open-source Quantum ESPRESSO suite
     for quantum simulation of materials; please cite
         "P. Giannozzi et al., J. Phys.:Condens. Matter 21 395502 (2009);
         "P. Giannozzi et al., J. Phys.:Condens. Matter 29 465901 (2017);
         "P. Giannozzi et al., J. Chem. Phys. 152 154105 (2020);
          URL http://www.quantum-espresso.org", 
     in publications or presentations arising from this work. More details at
     http://www.quantum-espresso.org/quote

     Parallel version (MPI), running on     2 processors

     MPI processes distributed on     1 nodes
     0 MiB available memory on the printing compute node when the environment starts

     Reading input from Al.scf.inp

     Current dimensions of program PWSCF are:
     Max number of different atomic species (ntypx) = 10
     Max number of k-points (npk) =  40000
     Max angular momentum in pseudopotentials (lmaxx) =  4

     R & G space division:  proc/nbgrp/npool/nimage =       2
     Subspace diagonalization in iterative solution of the eigenvalue problem:
     a serial algorithm will be used


     Parallelization info
     --------------------
     sticks:   dense  smooth     PW     G-vecs:    dense   smooth      PW
     Min         444     219     75                 8785     3115     569
     Max         445     220     76                 8788     3116     570
     Sum         889     439    151                17573     6231    1139

     Using Slab Decomposition



     bravais-lattice index     =            2
     lattice parameter (alat)  =       9.0000  a.u.
     unit-cell volume          =     182.2500 (a.u.)^3
     number of atoms/cell      =            1
     number of atomic types    =            1
     number of electrons       =         3.00
     number of Kohn-Sham states=            6
     kinetic-energy cutoff     =      40.0000  Ry
     charge density cutoff     =     320.0000  Ry
     scf convergence threshold =      1.0E-08
     mixing beta               =       0.7000
     number of iterations used =            8  plain     mixing
     Exchange-correlation= SLA  PW   PBE  PBE
                           (   1   4   3   4   0   0   0)

     celldm(1)=   9.000000  celldm(2)=   0.000000  celldm(3)=   0.000000
     celldm(4)=   0.000000  celldm(5)=   0.000000  celldm(6)=   0.000000

     crystal axes: (cart. coord. in units of alat)
               a(1) = (  -0.500000   0.000000   0.500000 )  
               a(2) = (   0.000000   0.500000   0.500000 )  
               a(3) = (  -0.500000   0.500000   0.000000 )  

     reciprocal axes: (cart. coord. in units 2 pi/alat)
               b(1) = ( -1.000000 -1.000000  1.000000 )  
               b(2) = (  1.000000  1.000000  1.000000 )  
               b(3) = ( -1.000000  1.000000 -1.000000 )  


     PseudoPot. # 1 for Al read from file:
     /Users/zhy/Aluminum-from-First-Principles/Al.pbe-n-van.UPF
     MD5 check sum: cbc97ad259b400557db688b98a6ada97
     Pseudo is Ultrasoft + core correction, Zval =  3.0
     Generated by new atomic code, or converted to UPF format
     Using radial grid of  893 points,  2 beta functions with: 
                l(1) =   0
                l(2) =   1
     Q(r) pseudized with  8 coefficients,  rinner =    0.900   0.900   0.900


     atomic species   valence    mass     pseudopotential
     Al                3.00    26.98200     Al( 1.00)

     48 Sym. Ops., with inversion, found



   Cartesian axes

     site n.     atom                  positions (alat units)
         1        Al     tau(   1) = (   0.0000000   0.0000000   0.0000000  )

     number of k points=    29  Methfessel-Paxton smearing, width (Ry)=  0.0500
                       cart. coord. in units 2pi/alat
        k(    1) = (   0.0000000   0.0000000   0.0000000), wk =   0.0039062
        k(    2) = (  -0.1250000   0.1250000  -0.1250000), wk =   0.0312500
        k(    3) = (  -0.2500000   0.2500000  -0.2500000), wk =   0.0312500
        k(    4) = (  -0.3750000   0.3750000  -0.3750000), wk =   0.0312500
        k(    5) = (   0.5000000  -0.5000000   0.5000000), wk =   0.0156250
        k(    6) = (   0.0000000   0.2500000   0.0000000), wk =   0.0234375
        k(    7) = (  -0.1250000   0.3750000  -0.1250000), wk =   0.0937500
        k(    8) = (  -0.2500000   0.5000000  -0.2500000), wk =   0.0937500
        k(    9) = (   0.6250000  -0.3750000   0.6250000), wk =   0.0937500
        k(   10) = (   0.5000000  -0.2500000   0.5000000), wk =   0.0937500
        k(   11) = (   0.3750000  -0.1250000   0.3750000), wk =   0.0937500
        k(   12) = (   0.2500000   0.0000000   0.2500000), wk =   0.0468750
        k(   13) = (   0.0000000   0.5000000   0.0000000), wk =   0.0234375
        k(   14) = (  -0.1250000   0.6250000  -0.1250000), wk =   0.0937500
        k(   15) = (   0.7500000  -0.2500000   0.7500000), wk =   0.0937500
        k(   16) = (   0.6250000  -0.1250000   0.6250000), wk =   0.0937500
        k(   17) = (   0.5000000   0.0000000   0.5000000), wk =   0.0468750
        k(   18) = (   0.0000000   0.7500000   0.0000000), wk =   0.0234375
        k(   19) = (   0.8750000  -0.1250000   0.8750000), wk =   0.0937500
        k(   20) = (   0.7500000   0.0000000   0.7500000), wk =   0.0468750
        k(   21) = (   0.0000000  -1.0000000   0.0000000), wk =   0.0117188
        k(   22) = (  -0.2500000   0.5000000   0.0000000), wk =   0.0937500
        k(   23) = (   0.6250000  -0.3750000   0.8750000), wk =   0.1875000
        k(   24) = (   0.5000000  -0.2500000   0.7500000), wk =   0.0937500
        k(   25) = (   0.7500000  -0.2500000   1.0000000), wk =   0.0937500
        k(   26) = (   0.6250000  -0.1250000   0.8750000), wk =   0.1875000
        k(   27) = (   0.5000000   0.0000000   0.7500000), wk =   0.0937500
        k(   28) = (  -0.2500000  -1.0000000   0.0000000), wk =   0.0468750
        k(   29) = (  -0.5000000  -1.0000000   0.0000000), wk =   0.0234375

     Dense  grid:    17573 G-vectors     FFT dimensions: (  40,  40,  40)

     Smooth grid:     6231 G-vectors     FFT dimensions: (  25,  25,  25)

     Estimated max dynamical RAM per process >      10.24 MB

     Estimated total dynamical RAM >      20.48 MB

     Initial potential from superposition of free atoms

     starting charge       2.9975, renormalised to       3.0000
     Starting wfcs are    4 randomized atomic wfcs +    2 random wfcs

     total cpu time spent up to now is        0.3 secs

     Self-consistent Calculation

     iteration #  1     ecut=    40.00 Ry     beta= 0.70
     Davidson diagonalization with overlap
     ethr =  1.00E-02,  avg # of iterations =  5.2

     Threshold (ethr) on eigenvalues was too large:
     Diagonalizing with lowered threshold

     Davidson diagonalization with overlap
     ethr =  1.78E-04,  avg # of iterations =  3.3

     total cpu time spent up to now is        0.4 secs

     total energy              =     -12.41830512 Ry
     estimated scf accuracy    <       0.00518062 Ry

     iteration #  2     ecut=    40.00 Ry     beta= 0.70
     Davidson diagonalization with overlap
     ethr =  1.73E-04,  avg # of iterations =  1.0

     total cpu time spent up to now is        0.5 secs

     total energy              =     -12.41843010 Ry
     estimated scf accuracy    <       0.00024217 Ry

     iteration #  3     ecut=    40.00 Ry     beta= 0.70
     Davidson diagonalization with overlap
     ethr =  8.07E-06,  avg # of iterations =  4.0

     total cpu time spent up to now is        0.5 secs

     total energy              =     -12.41846504 Ry
     estimated scf accuracy    <       0.00000116 Ry

     iteration #  4     ecut=    40.00 Ry     beta= 0.70
     Davidson diagonalization with overlap
     ethr =  3.88E-08,  avg # of iterations =  2.9

     total cpu time spent up to now is        0.6 secs

     total energy              =     -12.41846638 Ry
     estimated scf accuracy    <       0.00000007 Ry

     iteration #  5     ecut=    40.00 Ry     beta= 0.70
     Davidson diagonalization with overlap
     ethr =  2.28E-09,  avg # of iterations =  1.5

     total cpu time spent up to now is        0.6 secs

     End of self-consistent calculation

          k = 0.0000 0.0000 0.0000 (   749 PWs)   bands (ev):

    -4.4983  12.4148  12.4148  12.4148  13.9183  13.9184

          k =-0.1250 0.1250-0.1250 (   785 PWs)   bands (ev):

    -4.1952   9.6782  11.7864  11.7865  14.1599  14.8349

          k =-0.2500 0.2500-0.2500 (   784 PWs)   bands (ev):

    -3.2908   6.1688  11.1475  11.1476  13.7956  14.7226

          k =-0.3750 0.3750-0.3750 (   775 PWs)   bands (ev):

    -1.8077   3.0459  10.8710  10.8710  13.6066  13.6204

          k = 0.5000-0.5000 0.5000 (   778 PWs)   bands (ev):

    -0.1822   0.8662  10.8270  10.8270  13.1420  13.6182

          k = 0.0000 0.2500 0.0000 (   789 PWs)   bands (ev):

    -4.0942  10.6266  10.6266  11.3014  12.2498  15.2436

          k =-0.1250 0.3750-0.1250 (   791 PWs)   bands (ev):

    -3.3899   7.5321   9.8406  10.6145  12.5093  14.1493

          k =-0.2500 0.5000-0.2500 (   783 PWs)   bands (ev):

    -2.0964   4.2775   9.5516   9.6804  11.8327  15.4383

          k = 0.6250-0.3750 0.6250 (   782 PWs)   bands (ev):

    -0.3116   1.5773   8.8048   9.7658  11.8370  14.7290

          k = 0.5000-0.2500 0.5000 (   784 PWs)   bands (ev):

    -0.9368   2.3873   8.2731  10.4412  12.5684  14.2443

          k = 0.3750-0.1250 0.3750 (   787 PWs)   bands (ev):

    -2.5918   5.3195   8.2266  11.4403  13.8663  14.4213

          k = 0.2500 0.0000 0.2500 (   775 PWs)   bands (ev):

    -3.6915   8.6978   8.7068  12.3213  14.7001  14.9225

          k = 0.0000 0.5000 0.0000 (   769 PWs)   bands (ev):

    -2.8874   8.7762   8.8850   8.8850  10.3586  11.6078

          k =-0.1250 0.6250-0.1250 (   782 PWs)   bands (ev):

    -1.7919   5.9663   7.4661   8.4348  10.3219  12.4593

          k = 0.7500-0.2500 0.7500 (   777 PWs)   bands (ev):

    -0.1433   3.1217   6.1293   8.5118  10.3564  15.2092

          k = 0.6250-0.1250 0.6250 (   780 PWs)   bands (ev):

     0.4678   2.3437   5.3036   9.1084  10.9975  16.7918

          k = 0.5000 0.0000 0.5000 (   784 PWs)   bands (ev):

    -1.3073   4.9768   5.0807  10.1783  12.2131  16.3300

          k = 0.0000 0.7500 0.0000 (   785 PWs)   bands (ev):

    -0.8971   5.2115   7.8120   7.8120   9.1745   9.9597

          k = 0.8750-0.1250 0.8750 (   773 PWs)   bands (ev):

     0.5662   3.5942   5.4699   7.7191   9.4304  11.6986

          k = 0.7500 0.0000 0.7500 (   762 PWs)   bands (ev):

     2.0075   2.6785   3.3828   8.1584   9.9283  14.9229

          k = 0.0000-1.0000 0.0000 (   790 PWs)   bands (ev):

     1.7677   1.9078   7.4515   7.4515   8.7759   9.4989

          k =-0.2500 0.5000 0.0000 (   784 PWs)   bands (ev):

    -2.4899   6.8590   6.8688   9.7861  13.0926  13.4124

          k = 0.6250-0.3750 0.8750 (   783 PWs)   bands (ev):

    -1.0140   3.7961   6.7080   8.4258  13.0497  14.5542

          k = 0.5000-0.2500 0.7500 (   782 PWs)   bands (ev):

     0.6106   1.6274   6.8403   7.7600  13.1440  14.0512

          k = 0.7500-0.2500 1.0000 (   772 PWs)   bands (ev):

    -0.5118   5.1870   5.7267   6.4990  11.9910  12.2788

          k = 0.6250-0.1250 0.8750 (   769 PWs)   bands (ev):

     1.2549   3.0172   4.5489   6.2676  12.3843  15.0849

          k = 0.5000 0.0000 0.7500 (   773 PWs)   bands (ev):

     0.6116   3.8304   3.9435   7.0537  13.1323  16.0352

          k =-0.2500-1.0000 0.0000 (   772 PWs)   bands (ev):

     2.0801   2.2934   5.3471   5.7397  11.6172  11.9102

          k =-0.5000-1.0000 0.0000 (   772 PWs)   bands (ev):

     2.5778   3.4467   3.4467   4.5408  14.7974  15.6899

     the Fermi energy is     3.6007 ev

!    total energy              =     -12.41846639 Ry
     estimated scf accuracy    <          1.5E-09 Ry
     smearing contrib. (-TS)   =      -0.00100858 Ry
     internal energy E=F+TS    =     -12.41745781 Ry

     The total energy is F=E-TS. E is the sum of the following terms:
     one-electron contribution =       1.96141781 Ry
     hartree contribution      =       0.02523827 Ry
     xc contribution           =      -9.81925181 Ry
     ewald contribution        =      -4.58486207 Ry

     convergence has been achieved in   5 iterations

     Forces acting on atoms (cartesian axes, Ry/au):

     atom    1 type  1   force =     0.00000000    0.00000000    0.00000000

     Total force =     0.000000     Total SCF correction =     0.000000


     Computing stress (Cartesian axis) and pressure

          total   stress  (Ry/bohr**3)                   (kbar)     P=     -114.49
  -0.00077831   0.00000000   0.00000000         -114.49        0.00        0.00
   0.00000000  -0.00077831  -0.00000000            0.00     -114.49       -0.00
   0.00000000  -0.00000000  -0.00077831            0.00       -0.00     -114.49


     Writing all to output data dir /Users/zhy/Aluminum-from-First-Principles/convergence-runs/cutoff-kmesh/ecut-040.0-ry_k-08x08x08_degauss-0.050-ry/qe-out/aluminum_ecut-040p0-ry_k-08x08x08_degauss-0p050-ry.save/ :
     XML data file, charge density, pseudopotentials, collected wavefunctions

     init_run     :      0.25s CPU      0.25s WALL (       1 calls)
     electrons    :      0.37s CPU      0.38s WALL (       1 calls)
     forces       :      0.01s CPU      0.01s WALL (       1 calls)
     stress       :      0.03s CPU      0.03s WALL (       1 calls)

     Called by init_run:
     wfcinit      :      0.02s CPU      0.02s WALL (       1 calls)
     potinit      :      0.04s CPU      0.04s WALL (       1 calls)
     hinit0       :      0.16s CPU      0.16s WALL (       1 calls)

     Called by electrons:
     c_bands      :      0.27s CPU      0.28s WALL (       6 calls)
     sum_band     :      0.06s CPU      0.06s WALL (       6 calls)
     v_of_rho     :      0.04s CPU      0.04s WALL (       6 calls)
     newd         :      0.01s CPU      0.01s WALL (       6 calls)
     mix_rho      :      0.00s CPU      0.00s WALL (       6 calls)

     Called by c_bands:
     init_us_2    :      0.01s CPU      0.01s WALL (     435 calls)
     cegterg      :      0.27s CPU      0.28s WALL (     174 calls)

     Called by *egterg:
     cdiaghg      :      0.01s CPU      0.01s WALL (     664 calls)
     h_psi        :      0.24s CPU      0.25s WALL (     722 calls)
     s_psi        :      0.00s CPU      0.00s WALL (     722 calls)
     g_psi        :      0.00s CPU      0.00s WALL (     519 calls)

     Called by h_psi:
     h_psi:calbec :      0.00s CPU      0.00s WALL (     722 calls)
     vloc_psi     :      0.24s CPU      0.24s WALL (     722 calls)
     add_vuspsi   :      0.00s CPU      0.00s WALL (     722 calls)

     General routines
     calbec       :      0.01s CPU      0.01s WALL (    1389 calls)
     fft          :      0.15s CPU      0.15s WALL (     102 calls)
     ffts         :      0.03s CPU      0.03s WALL (      12 calls)
     fftw         :      0.25s CPU      0.25s WALL (    6954 calls)
     interpolate  :      0.03s CPU      0.03s WALL (       6 calls)

     Parallel routines

     PWSCF        :      0.67s CPU      0.69s WALL


   This run was terminated on:  23:45:40  22Sep2026            

=------------------------------------------------------------------------------=
   JOB DONE.
=------------------------------------------------------------------------------=
Note: The following floating-point exceptions are signalling: IEEE_UNDERFLOW_FLAG
Note: The following floating-point exceptions are signalling: IEEE_INVALID_FLAG IEEE_DIVIDE_BY_ZERO IEEE_UNDERFLOW_FLAG
