
     Program PWSCF v.7.6 starts on 22Sep2026 at 23:45:12 

     This program is part of the open-source Quantum ESPRESSO suite
     for quantum simulation of materials; please cite
         "P. Giannozzi et al., J. Phys.:Condens. Matter 21 395502 (2009);
         "P. Giannozzi et al., J. Phys.:Condens. Matter 29 465901 (2017);
         "P. Giannozzi et al., J. Chem. Phys. 152 154105 (2020);
          URL http://www.quantum-espresso.org", 
     in publications or presentations arising from this work. More details at
     http://www.quantum-espresso.org/quote

     Parallel version (MPI), running on     2 processors

     MPI processes distributed on     1 nodes
     0 MiB available memory on the printing compute node when the environment starts

     Reading input from Al.scf.inp

     Current dimensions of program PWSCF are:
     Max number of different atomic species (ntypx) = 10
     Max number of k-points (npk) =  40000
     Max angular momentum in pseudopotentials (lmaxx) =  4

     R & G space division:  proc/nbgrp/npool/nimage =       2
     Subspace diagonalization in iterative solution of the eigenvalue problem:
     a serial algorithm will be used


     Parallelization info
     --------------------
     sticks:   dense  smooth     PW     G-vecs:    dense   smooth      PW
     Min         168      81     30                 2007      728     165
     Max         169      82     31                 2008      731     166
     Sum         337     163     61                 4015     1459     331

     Using Slab Decomposition



     bravais-lattice index     =            2
     lattice parameter (alat)  =       9.0000  a.u.
     unit-cell volume          =     182.2500 (a.u.)^3
     number of atoms/cell      =            1
     number of atomic types    =            1
     number of electrons       =         3.00
     number of Kohn-Sham states=            6
     kinetic-energy cutoff     =      15.0000  Ry
     charge density cutoff     =     120.0000  Ry
     scf convergence threshold =      1.0E-08
     mixing beta               =       0.7000
     number of iterations used =            8  plain     mixing
     Exchange-correlation= SLA  PW   PBE  PBE
                           (   1   4   3   4   0   0   0)

     celldm(1)=   9.000000  celldm(2)=   0.000000  celldm(3)=   0.000000
     celldm(4)=   0.000000  celldm(5)=   0.000000  celldm(6)=   0.000000

     crystal axes: (cart. coord. in units of alat)
               a(1) = (  -0.500000   0.000000   0.500000 )  
               a(2) = (   0.000000   0.500000   0.500000 )  
               a(3) = (  -0.500000   0.500000   0.000000 )  

     reciprocal axes: (cart. coord. in units 2 pi/alat)
               b(1) = ( -1.000000 -1.000000  1.000000 )  
               b(2) = (  1.000000  1.000000  1.000000 )  
               b(3) = ( -1.000000  1.000000 -1.000000 )  


     PseudoPot. # 1 for Al read from file:
     /Users/zhy/Aluminum-from-First-Principles/Al.pbe-n-van.UPF
     MD5 check sum: cbc97ad259b400557db688b98a6ada97
     Pseudo is Ultrasoft + core correction, Zval =  3.0
     Generated by new atomic code, or converted to UPF format
     Using radial grid of  893 points,  2 beta functions with: 
                l(1) =   0
                l(2) =   1
     Q(r) pseudized with  8 coefficients,  rinner =    0.900   0.900   0.900


     atomic species   valence    mass     pseudopotential
     Al                3.00    26.98200     Al( 1.00)

     48 Sym. Ops., with inversion, found



   Cartesian axes

     site n.     atom                  positions (alat units)
         1        Al     tau(   1) = (   0.0000000   0.0000000   0.0000000  )

     number of k points=    47  Methfessel-Paxton smearing, width (Ry)=  0.0500
                       cart. coord. in units 2pi/alat
        k(    1) = (   0.0000000   0.0000000   0.0000000), wk =   0.0020000
        k(    2) = (  -0.1000000   0.1000000  -0.1000000), wk =   0.0160000
        k(    3) = (  -0.2000000   0.2000000  -0.2000000), wk =   0.0160000
        k(    4) = (  -0.3000000   0.3000000  -0.3000000), wk =   0.0160000
        k(    5) = (  -0.4000000   0.4000000  -0.4000000), wk =   0.0160000
        k(    6) = (   0.5000000  -0.5000000   0.5000000), wk =   0.0080000
        k(    7) = (   0.0000000   0.2000000   0.0000000), wk =   0.0120000
        k(    8) = (  -0.1000000   0.3000000  -0.1000000), wk =   0.0480000
        k(    9) = (  -0.2000000   0.4000000  -0.2000000), wk =   0.0480000
        k(   10) = (  -0.3000000   0.5000000  -0.3000000), wk =   0.0480000
        k(   11) = (   0.6000000  -0.4000000   0.6000000), wk =   0.0480000
        k(   12) = (   0.5000000  -0.3000000   0.5000000), wk =   0.0480000
        k(   13) = (   0.4000000  -0.2000000   0.4000000), wk =   0.0480000
        k(   14) = (   0.3000000  -0.1000000   0.3000000), wk =   0.0480000
        k(   15) = (   0.2000000   0.0000000   0.2000000), wk =   0.0240000
        k(   16) = (   0.0000000   0.4000000   0.0000000), wk =   0.0120000
        k(   17) = (  -0.1000000   0.5000000  -0.1000000), wk =   0.0480000
        k(   18) = (  -0.2000000   0.6000000  -0.2000000), wk =   0.0480000
        k(   19) = (   0.7000000  -0.3000000   0.7000000), wk =   0.0480000
        k(   20) = (   0.6000000  -0.2000000   0.6000000), wk =   0.0480000
        k(   21) = (   0.5000000  -0.1000000   0.5000000), wk =   0.0480000
        k(   22) = (   0.4000000   0.0000000   0.4000000), wk =   0.0240000
        k(   23) = (   0.0000000   0.6000000   0.0000000), wk =   0.0120000
        k(   24) = (  -0.1000000   0.7000000  -0.1000000), wk =   0.0480000
        k(   25) = (   0.8000000  -0.2000000   0.8000000), wk =   0.0480000
        k(   26) = (   0.7000000  -0.1000000   0.7000000), wk =   0.0480000
        k(   27) = (   0.6000000   0.0000000   0.6000000), wk =   0.0240000
        k(   28) = (   0.0000000   0.8000000   0.0000000), wk =   0.0120000
        k(   29) = (   0.9000000  -0.1000000   0.9000000), wk =   0.0480000
        k(   30) = (   0.8000000   0.0000000   0.8000000), wk =   0.0240000
        k(   31) = (   0.0000000  -1.0000000   0.0000000), wk =   0.0060000
        k(   32) = (  -0.2000000   0.4000000   0.0000000), wk =   0.0480000
        k(   33) = (  -0.3000000   0.5000000  -0.1000000), wk =   0.0960000
        k(   34) = (   0.6000000  -0.4000000   0.8000000), wk =   0.0960000
        k(   35) = (   0.5000000  -0.3000000   0.7000000), wk =   0.0480000
        k(   36) = (  -0.2000000   0.6000000   0.0000000), wk =   0.0480000
        k(   37) = (   0.7000000  -0.3000000   0.9000000), wk =   0.0960000
        k(   38) = (   0.6000000  -0.2000000   0.8000000), wk =   0.0960000
        k(   39) = (   0.5000000  -0.1000000   0.7000000), wk =   0.0960000
        k(   40) = (   0.4000000   0.0000000   0.6000000), wk =   0.0480000
        k(   41) = (   0.8000000  -0.2000000   1.0000000), wk =   0.0480000
        k(   42) = (   0.7000000  -0.1000000   0.9000000), wk =   0.0960000
        k(   43) = (   0.6000000   0.0000000   0.8000000), wk =   0.0480000
        k(   44) = (  -0.2000000  -1.0000000   0.0000000), wk =   0.0240000
        k(   45) = (   0.6000000  -0.2000000   1.0000000), wk =   0.0480000
        k(   46) = (   0.5000000  -0.1000000   0.9000000), wk =   0.0480000
        k(   47) = (  -0.4000000  -1.0000000   0.0000000), wk =   0.0240000

     Dense  grid:     4015 G-vectors     FFT dimensions: (  24,  24,  24)

     Smooth grid:     1459 G-vectors     FFT dimensions: (  15,  15,  15)

     Estimated max dynamical RAM per process >       2.51 MB

     Estimated total dynamical RAM >       5.01 MB

     Initial potential from superposition of free atoms

     starting charge       2.9975, renormalised to       3.0000
     Starting wfcs are    4 randomized atomic wfcs +    2 random wfcs

     total cpu time spent up to now is        0.2 secs

     Self-consistent Calculation

     iteration #  1     ecut=    15.00 Ry     beta= 0.70
     Davidson diagonalization with overlap
     ethr =  1.00E-02,  avg # of iterations =  5.0

     Threshold (ethr) on eigenvalues was too large:
     Diagonalizing with lowered threshold

     Davidson diagonalization with overlap
     ethr =  1.94E-04,  avg # of iterations =  2.5

     total cpu time spent up to now is        0.2 secs

     total energy              =     -12.41491314 Ry
     estimated scf accuracy    <       0.00574233 Ry

     iteration #  2     ecut=    15.00 Ry     beta= 0.70
     Davidson diagonalization with overlap
     ethr =  1.91E-04,  avg # of iterations =  1.0

     total cpu time spent up to now is        0.2 secs

     total energy              =     -12.41503350 Ry
     estimated scf accuracy    <       0.00026404 Ry

     iteration #  3     ecut=    15.00 Ry     beta= 0.70
     Davidson diagonalization with overlap
     ethr =  8.80E-06,  avg # of iterations =  2.9

     total cpu time spent up to now is        0.3 secs

     total energy              =     -12.41505433 Ry
     estimated scf accuracy    <       0.00000079 Ry

     iteration #  4     ecut=    15.00 Ry     beta= 0.70
     Davidson diagonalization with overlap
     ethr =  2.63E-08,  avg # of iterations =  2.3

     total cpu time spent up to now is        0.3 secs

     total energy              =     -12.41505514 Ry
     estimated scf accuracy    <       0.00000006 Ry

     iteration #  5     ecut=    15.00 Ry     beta= 0.70
     Davidson diagonalization with overlap
     ethr =  2.10E-09,  avg # of iterations =  1.4

     total cpu time spent up to now is        0.3 secs

     End of self-consistent calculation

          k = 0.0000 0.0000 0.0000 (   169 PWs)   bands (ev):

    -4.4975  12.5686  12.5686  12.5686  14.0508  14.0508

          k =-0.1000 0.1000-0.1000 (   172 PWs)   bands (ev):

    -4.3030  10.4915  12.0859  12.0859  14.3425  14.7458

          k =-0.2000 0.2000-0.2000 (   172 PWs)   bands (ev):

    -3.7211   7.6114  11.4855  11.4856  14.0877  15.2546

          k =-0.3000 0.3000-0.3000 (   177 PWs)   bands (ev):

    -2.7592   4.9003  11.1153  11.1153  13.8584  14.3754

          k =-0.4000 0.4000-0.4000 (   174 PWs)   bands (ev):

    -1.4403   2.5154  10.9686  10.9686  13.5655  13.5655

          k = 0.5000-0.5000 0.5000 (   180 PWs)   bands (ev):

    -0.1728   0.8897  10.9441  10.9441  13.2508  13.8149

          k = 0.0000 0.2000 0.0000 (   173 PWs)   bands (ev):

    -4.2381  11.1571  11.1571  11.8057  12.7821  15.7874

          k =-0.1000 0.3000-0.1000 (   174 PWs)   bands (ev):

    -3.7853   8.6962  10.4343  11.3489  13.1093  14.8619

          k =-0.2000 0.4000-0.2000 (   178 PWs)   bands (ev):

    -2.9496   5.9274  10.0170  10.7010  12.7506  15.1930

          k =-0.3000 0.5000-0.3000 (   176 PWs)   bands (ev):

    -1.7452   3.4305   9.9267  10.0514  12.2295  15.1506

          k = 0.6000-0.4000 0.6000 (   174 PWs)   bands (ev):

    -0.2797   1.3712   9.4451  10.1497  12.2788  14.3970

          k = 0.5000-0.3000 0.5000 (   176 PWs)   bands (ev):

    -0.7698   1.9806   9.0344  10.6515  12.8199  14.0167

          k = 0.4000-0.2000 0.4000 (   177 PWs)   bands (ev):

    -2.1861   4.2267   8.9127  11.3525  13.7575  14.0900

          k = 0.3000-0.1000 0.3000 (   175 PWs)   bands (ev):

    -3.2704   6.8322   9.1191  12.0956  14.6298  14.8667

          k = 0.2000 0.0000 0.2000 (   174 PWs)   bands (ev):

    -3.9793   9.6383   9.6753  12.5911  14.5490  14.7917

          k = 0.0000 0.4000 0.0000 (   169 PWs)   bands (ev):

    -3.4621   9.5998   9.5998  10.0737  11.1234  12.9177

          k =-0.1000 0.5000-0.1000 (   176 PWs)   bands (ev):

    -2.7549   7.2453   9.0779   9.2249  11.1723  12.7231

          k =-0.2000 0.6000-0.2000 (   177 PWs)   bands (ev):

    -1.6731   4.6936   8.1395   8.8940  10.8772  14.5568

          k = 0.7000-0.3000 0.7000 (   178 PWs)   bands (ev):

    -0.2597   2.4644   7.2259   9.0492  10.9717  16.4883

          k = 0.6000-0.2000 0.6000 (   176 PWs)   bands (ev):

     0.2252   1.8650   6.6077   9.5357  11.4818  15.9378

          k = 0.5000-0.1000 0.5000 (   178 PWs)   bands (ev):

    -1.2377   3.9187   6.3288  10.3259  12.3733  15.7082

          k = 0.4000 0.0000 0.4000 (   178 PWs)   bands (ev):

    -2.4378   6.3652   6.4369  11.3348  13.5993  15.7459

          k = 0.0000 0.6000 0.0000 (   174 PWs)   bands (ev):

    -2.1767   7.4675   8.4482   8.4482   9.8706  10.8334

          k =-0.1000 0.7000-0.1000 (   182 PWs)   bands (ev):

    -1.2220   5.8529   6.7073   8.1540   9.9376  11.6538

          k = 0.8000-0.2000 0.8000 (   180 PWs)   bands (ev):

     0.0871   3.8635   5.2757   8.2063   9.9966  13.9188

          k = 0.7000-0.1000 0.7000 (   180 PWs)   bands (ev):

     1.3382   2.3322   4.4325   8.5992  10.4211  16.4656

          k = 0.6000 0.0000 0.6000 (   176 PWs)   bands (ev):

     0.0620   3.9153   4.0556   9.3221  11.2234  17.6148

          k = 0.0000 0.8000 0.0000 (   178 PWs)   bands (ev):

    -0.3953   4.5367   7.7492   7.7492   9.1020   9.8743

          k = 0.9000-0.1000 0.9000 (   182 PWs)   bands (ev):

     0.7927   3.2526   5.9664   7.6889   9.3816  11.1507

          k = 0.8000 0.0000 0.8000 (   180 PWs)   bands (ev):

     2.1043   2.4315   4.0116   7.9749   9.7216  13.6997

          k = 0.0000-1.0000 0.0000 (   190 PWs)   bands (ev):

     1.7846   1.9356   7.5150   7.5150   8.8440   9.5769

          k =-0.2000 0.4000 0.0000 (   171 PWs)   bands (ev):

    -3.2053   8.0363   8.0392  11.1252  13.1325  13.8652

          k =-0.3000 0.5000-0.1000 (   180 PWs)   bands (ev):

    -2.2462   5.3738   7.7098  10.0656  13.0534  14.8013

          k = 0.6000-0.4000 0.8000 (   178 PWs)   bands (ev):

    -0.9306   3.0038   7.6963   9.1218  12.9717  14.3342

          k = 0.5000-0.3000 0.7000 (   174 PWs)   bands (ev):

     0.3384   1.3802   7.8092   8.6780  13.0516  13.9341

          k =-0.2000 0.6000 0.0000 (   180 PWs)   bands (ev):

    -1.9238   6.6913   6.8346   8.2815  11.9504  12.3774

          k = 0.7000-0.3000 0.9000 (   182 PWs)   bands (ev):

    -0.7263   4.3630   6.4129   7.3341  12.0650  14.2645

          k = 0.6000-0.2000 0.8000 (   183 PWs)   bands (ev):

     0.7336   2.3381   5.8182   7.3157  12.3313  15.6852

          k = 0.5000-0.1000 0.7000 (   180 PWs)   bands (ev):

     0.2367   2.9579   5.3387   7.8984  12.9285  15.3641

          k = 0.4000 0.0000 0.6000 (   179 PWs)   bands (ev):

    -1.1700   5.1436   5.2155   8.8607  13.7392  15.0225

          k = 0.8000-0.2000 1.0000 (   179 PWs)   bands (ev):

    -0.1501   4.6652   6.1043   6.5390  11.2259  11.6106

          k = 0.7000-0.1000 0.9000 (   182 PWs)   bands (ev):

     1.2485   3.4416   4.3556   6.4849  11.5774  13.8562

          k = 0.6000 0.0000 0.8000 (   180 PWs)   bands (ev):

     1.6445   3.1742   3.4578   7.0045  12.1049  16.4115

          k =-0.2000-1.0000 0.0000 (   186 PWs)   bands (ev):

     1.9898   2.1834   5.8608   6.1927  10.9767  11.3592

          k = 0.6000-0.2000 1.0000 (   185 PWs)   bands (ev):

     0.5702   4.3185   4.4050   6.0197  14.1639  14.3324

          k = 0.5000-0.1000 0.9000 (   184 PWs)   bands (ev):

     1.8264   2.8004   4.4862   5.4919  14.2848  15.2739

          k =-0.4000-1.0000 0.0000 (   184 PWs)   bands (ev):

     2.4722   2.9261   4.1591   4.8182  14.0982  14.0983

     the Fermi energy is     3.6819 ev

!    total energy              =     -12.41505514 Ry
     estimated scf accuracy    <          9.8E-10 Ry
     smearing contrib. (-TS)   =       0.00099030 Ry
     internal energy E=F+TS    =     -12.41604544 Ry

     The total energy is F=E-TS. E is the sum of the following terms:
     one-electron contribution =       1.95440590 Ry
     hartree contribution      =       0.02467583 Ry
     xc contribution           =      -9.81026506 Ry
     ewald contribution        =      -4.58486212 Ry

     convergence has been achieved in   5 iterations

     Forces acting on atoms (cartesian axes, Ry/au):

     atom    1 type  1   force =     0.00000000    0.00000000    0.00000000

     Total force =     0.000000     Total SCF correction =     0.000000


     Computing stress (Cartesian axis) and pressure

          total   stress  (Ry/bohr**3)                   (kbar)     P=     -114.60
  -0.00077905  -0.00000000  -0.00000000         -114.60       -0.00       -0.00
  -0.00000000  -0.00077905  -0.00000000           -0.00     -114.60       -0.00
  -0.00000000  -0.00000000  -0.00077905           -0.00       -0.00     -114.60


     Writing all to output data dir /Users/zhy/Aluminum-from-First-Principles/convergence-runs/cutoff-kmesh/ecut-015.0-ry_k-10x10x10_degauss-0.050-ry/qe-out/aluminum_ecut-015p0-ry_k-10x10x10_degauss-0p050-ry.save/ :
     XML data file, charge density, pseudopotentials, collected wavefunctions

     init_run     :      0.14s CPU      0.14s WALL (       1 calls)
     electrons    :      0.14s CPU      0.16s WALL (       1 calls)
     forces       :      0.00s CPU      0.00s WALL (       1 calls)
     stress       :      0.01s CPU      0.01s WALL (       1 calls)

     Called by init_run:
     wfcinit      :      0.01s CPU      0.01s WALL (       1 calls)
     potinit      :      0.02s CPU      0.02s WALL (       1 calls)
     hinit0       :      0.11s CPU      0.11s WALL (       1 calls)

     Called by electrons:
     c_bands      :      0.11s CPU      0.13s WALL (       6 calls)
     sum_band     :      0.02s CPU      0.02s WALL (       6 calls)
     v_of_rho     :      0.01s CPU      0.01s WALL (       6 calls)
     newd         :      0.00s CPU      0.00s WALL (       6 calls)
     mix_rho      :      0.00s CPU      0.00s WALL (       6 calls)

     Called by c_bands:
     init_us_2    :      0.00s CPU      0.00s WALL (     705 calls)
     cegterg      :      0.11s CPU      0.12s WALL (     282 calls)

     Called by *egterg:
     cdiaghg      :      0.02s CPU      0.02s WALL (     946 calls)
     h_psi        :      0.08s CPU      0.09s WALL (    1040 calls)
     s_psi        :      0.00s CPU      0.00s WALL (    1040 calls)
     g_psi        :      0.00s CPU      0.00s WALL (     711 calls)

     Called by h_psi:
     h_psi:calbec :      0.00s CPU      0.00s WALL (    1040 calls)
     vloc_psi     :      0.08s CPU      0.08s WALL (    1040 calls)
     add_vuspsi   :      0.00s CPU      0.00s WALL (    1040 calls)

     General routines
     calbec       :      0.00s CPU      0.01s WALL (    2121 calls)
     fft          :      0.10s CPU      0.10s WALL (     102 calls)
     ffts         :      0.01s CPU      0.01s WALL (      12 calls)
     fftw         :      0.08s CPU      0.09s WALL (   10742 calls)
     interpolate  :      0.01s CPU      0.01s WALL (       6 calls)

     Parallel routines

     PWSCF        :      0.31s CPU      0.34s WALL


   This run was terminated on:  23:45:13  22Sep2026            

=------------------------------------------------------------------------------=
   JOB DONE.
=------------------------------------------------------------------------------=
Note: The following floating-point exceptions are signalling: IEEE_INVALID_FLAG IEEE_DIVIDE_BY_ZERO IEEE_UNDERFLOW_FLAG
Note: The following floating-point exceptions are signalling: IEEE_UNDERFLOW_FLAG
