
     Program PWSCF v.7.6 starts on 22Sep2026 at 23:45:40 

     This program is part of the open-source Quantum ESPRESSO suite
     for quantum simulation of materials; please cite
         "P. Giannozzi et al., J. Phys.:Condens. Matter 21 395502 (2009);
         "P. Giannozzi et al., J. Phys.:Condens. Matter 29 465901 (2017);
         "P. Giannozzi et al., J. Chem. Phys. 152 154105 (2020);
          URL http://www.quantum-espresso.org", 
     in publications or presentations arising from this work. More details at
     http://www.quantum-espresso.org/quote

     Parallel version (MPI), running on     2 processors

     MPI processes distributed on     1 nodes
     0 MiB available memory on the printing compute node when the environment starts

     Reading input from Al.scf.inp

     Current dimensions of program PWSCF are:
     Max number of different atomic species (ntypx) = 10
     Max number of k-points (npk) =  40000
     Max angular momentum in pseudopotentials (lmaxx) =  4

     R & G space division:  proc/nbgrp/npool/nimage =       2
     Subspace diagonalization in iterative solution of the eigenvalue problem:
     a serial algorithm will be used


     Parallelization info
     --------------------
     sticks:   dense  smooth     PW     G-vecs:    dense   smooth      PW
     Min         444     219     75                 8785     3115     604
     Max         445     220     76                 8788     3116     607
     Sum         889     439    151                17573     6231    1211

     Using Slab Decomposition



     bravais-lattice index     =            2
     lattice parameter (alat)  =       9.0000  a.u.
     unit-cell volume          =     182.2500 (a.u.)^3
     number of atoms/cell      =            1
     number of atomic types    =            1
     number of electrons       =         3.00
     number of Kohn-Sham states=            6
     kinetic-energy cutoff     =      40.0000  Ry
     charge density cutoff     =     320.0000  Ry
     scf convergence threshold =      1.0E-08
     mixing beta               =       0.7000
     number of iterations used =            8  plain     mixing
     Exchange-correlation= SLA  PW   PBE  PBE
                           (   1   4   3   4   0   0   0)

     celldm(1)=   9.000000  celldm(2)=   0.000000  celldm(3)=   0.000000
     celldm(4)=   0.000000  celldm(5)=   0.000000  celldm(6)=   0.000000

     crystal axes: (cart. coord. in units of alat)
               a(1) = (  -0.500000   0.000000   0.500000 )  
               a(2) = (   0.000000   0.500000   0.500000 )  
               a(3) = (  -0.500000   0.500000   0.000000 )  

     reciprocal axes: (cart. coord. in units 2 pi/alat)
               b(1) = ( -1.000000 -1.000000  1.000000 )  
               b(2) = (  1.000000  1.000000  1.000000 )  
               b(3) = ( -1.000000  1.000000 -1.000000 )  


     PseudoPot. # 1 for Al read from file:
     /Users/zhy/Aluminum-from-First-Principles/Al.pbe-n-van.UPF
     MD5 check sum: cbc97ad259b400557db688b98a6ada97
     Pseudo is Ultrasoft + core correction, Zval =  3.0
     Generated by new atomic code, or converted to UPF format
     Using radial grid of  893 points,  2 beta functions with: 
                l(1) =   0
                l(2) =   1
     Q(r) pseudized with  8 coefficients,  rinner =    0.900   0.900   0.900


     atomic species   valence    mass     pseudopotential
     Al                3.00    26.98200     Al( 1.00)

     48 Sym. Ops., with inversion, found



   Cartesian axes

     site n.     atom                  positions (alat units)
         1        Al     tau(   1) = (   0.0000000   0.0000000   0.0000000  )

     number of k points=    47  Methfessel-Paxton smearing, width (Ry)=  0.0500
                       cart. coord. in units 2pi/alat
        k(    1) = (   0.0000000   0.0000000   0.0000000), wk =   0.0020000
        k(    2) = (  -0.1000000   0.1000000  -0.1000000), wk =   0.0160000
        k(    3) = (  -0.2000000   0.2000000  -0.2000000), wk =   0.0160000
        k(    4) = (  -0.3000000   0.3000000  -0.3000000), wk =   0.0160000
        k(    5) = (  -0.4000000   0.4000000  -0.4000000), wk =   0.0160000
        k(    6) = (   0.5000000  -0.5000000   0.5000000), wk =   0.0080000
        k(    7) = (   0.0000000   0.2000000   0.0000000), wk =   0.0120000
        k(    8) = (  -0.1000000   0.3000000  -0.1000000), wk =   0.0480000
        k(    9) = (  -0.2000000   0.4000000  -0.2000000), wk =   0.0480000
        k(   10) = (  -0.3000000   0.5000000  -0.3000000), wk =   0.0480000
        k(   11) = (   0.6000000  -0.4000000   0.6000000), wk =   0.0480000
        k(   12) = (   0.5000000  -0.3000000   0.5000000), wk =   0.0480000
        k(   13) = (   0.4000000  -0.2000000   0.4000000), wk =   0.0480000
        k(   14) = (   0.3000000  -0.1000000   0.3000000), wk =   0.0480000
        k(   15) = (   0.2000000   0.0000000   0.2000000), wk =   0.0240000
        k(   16) = (   0.0000000   0.4000000   0.0000000), wk =   0.0120000
        k(   17) = (  -0.1000000   0.5000000  -0.1000000), wk =   0.0480000
        k(   18) = (  -0.2000000   0.6000000  -0.2000000), wk =   0.0480000
        k(   19) = (   0.7000000  -0.3000000   0.7000000), wk =   0.0480000
        k(   20) = (   0.6000000  -0.2000000   0.6000000), wk =   0.0480000
        k(   21) = (   0.5000000  -0.1000000   0.5000000), wk =   0.0480000
        k(   22) = (   0.4000000   0.0000000   0.4000000), wk =   0.0240000
        k(   23) = (   0.0000000   0.6000000   0.0000000), wk =   0.0120000
        k(   24) = (  -0.1000000   0.7000000  -0.1000000), wk =   0.0480000
        k(   25) = (   0.8000000  -0.2000000   0.8000000), wk =   0.0480000
        k(   26) = (   0.7000000  -0.1000000   0.7000000), wk =   0.0480000
        k(   27) = (   0.6000000   0.0000000   0.6000000), wk =   0.0240000
        k(   28) = (   0.0000000   0.8000000   0.0000000), wk =   0.0120000
        k(   29) = (   0.9000000  -0.1000000   0.9000000), wk =   0.0480000
        k(   30) = (   0.8000000   0.0000000   0.8000000), wk =   0.0240000
        k(   31) = (   0.0000000  -1.0000000   0.0000000), wk =   0.0060000
        k(   32) = (  -0.2000000   0.4000000   0.0000000), wk =   0.0480000
        k(   33) = (  -0.3000000   0.5000000  -0.1000000), wk =   0.0960000
        k(   34) = (   0.6000000  -0.4000000   0.8000000), wk =   0.0960000
        k(   35) = (   0.5000000  -0.3000000   0.7000000), wk =   0.0480000
        k(   36) = (  -0.2000000   0.6000000   0.0000000), wk =   0.0480000
        k(   37) = (   0.7000000  -0.3000000   0.9000000), wk =   0.0960000
        k(   38) = (   0.6000000  -0.2000000   0.8000000), wk =   0.0960000
        k(   39) = (   0.5000000  -0.1000000   0.7000000), wk =   0.0960000
        k(   40) = (   0.4000000   0.0000000   0.6000000), wk =   0.0480000
        k(   41) = (   0.8000000  -0.2000000   1.0000000), wk =   0.0480000
        k(   42) = (   0.7000000  -0.1000000   0.9000000), wk =   0.0960000
        k(   43) = (   0.6000000   0.0000000   0.8000000), wk =   0.0480000
        k(   44) = (  -0.2000000  -1.0000000   0.0000000), wk =   0.0240000
        k(   45) = (   0.6000000  -0.2000000   1.0000000), wk =   0.0480000
        k(   46) = (   0.5000000  -0.1000000   0.9000000), wk =   0.0480000
        k(   47) = (  -0.4000000  -1.0000000   0.0000000), wk =   0.0240000

     Dense  grid:    17573 G-vectors     FFT dimensions: (  40,  40,  40)

     Smooth grid:     6231 G-vectors     FFT dimensions: (  25,  25,  25)

     Estimated max dynamical RAM per process >      10.88 MB

     Estimated total dynamical RAM >      21.77 MB

     Initial potential from superposition of free atoms

     starting charge       2.9975, renormalised to       3.0000
     Starting wfcs are    4 randomized atomic wfcs +    2 random wfcs

     total cpu time spent up to now is        0.3 secs

     Self-consistent Calculation

     iteration #  1     ecut=    40.00 Ry     beta= 0.70
     Davidson diagonalization with overlap
     ethr =  1.00E-02,  avg # of iterations =  5.2

     Threshold (ethr) on eigenvalues was too large:
     Diagonalizing with lowered threshold

     Davidson diagonalization with overlap
     ethr =  1.76E-04,  avg # of iterations =  3.1

     total cpu time spent up to now is        0.5 secs

     total energy              =     -12.41964374 Ry
     estimated scf accuracy    <       0.00511327 Ry

     iteration #  2     ecut=    40.00 Ry     beta= 0.70
     Davidson diagonalization with overlap
     ethr =  1.70E-04,  avg # of iterations =  1.0

     total cpu time spent up to now is        0.6 secs

     total energy              =     -12.41976810 Ry
     estimated scf accuracy    <       0.00024038 Ry

     iteration #  3     ecut=    40.00 Ry     beta= 0.70
     Davidson diagonalization with overlap
     ethr =  8.01E-06,  avg # of iterations =  3.5

     total cpu time spent up to now is        0.7 secs

     total energy              =     -12.41980201 Ry
     estimated scf accuracy    <       0.00000111 Ry

     iteration #  4     ecut=    40.00 Ry     beta= 0.70
     Davidson diagonalization with overlap
     ethr =  3.68E-08,  avg # of iterations =  3.1

     total cpu time spent up to now is        0.8 secs

     total energy              =     -12.41980332 Ry
     estimated scf accuracy    <       0.00000006 Ry

     iteration #  5     ecut=    40.00 Ry     beta= 0.70
     Davidson diagonalization with overlap
     ethr =  2.03E-09,  avg # of iterations =  1.4

     total cpu time spent up to now is        0.9 secs

     End of self-consistent calculation

          k = 0.0000 0.0000 0.0000 (   749 PWs)   bands (ev):

    -4.4981  12.4154  12.4154  12.4154  13.9187  13.9188

          k =-0.1000 0.1000-0.1000 (   785 PWs)   bands (ev):

    -4.3040  10.3873  11.9492  11.9492  14.2027  14.5934

          k =-0.2000 0.2000-0.2000 (   794 PWs)   bands (ev):

    -3.7236   7.5431  11.3606  11.3607  13.9375  15.0910

          k =-0.3000 0.3000-0.3000 (   775 PWs)   bands (ev):

    -2.7640   4.8604  10.9967  10.9967  13.6935  14.2410

          k =-0.4000 0.4000-0.4000 (   769 PWs)   bands (ev):

    -1.4485   2.4882  10.8515  10.8515  13.4455  13.4455

          k = 0.5000-0.5000 0.5000 (   778 PWs)   bands (ev):

    -0.1817   0.8663  10.8276  10.8276  13.1423  13.6189

          k = 0.0000 0.2000 0.0000 (   781 PWs)   bands (ev):

    -4.2393  11.0417  11.0417  11.6600  12.6836  15.6103

          k =-0.1000 0.3000-0.1000 (   785 PWs)   bands (ev):

    -3.7876   8.6160  10.3301  11.2204  12.9916  14.7579

          k =-0.2000 0.4000-0.2000 (   784 PWs)   bands (ev):

    -2.9539   5.8784   9.9207  10.5826  12.6546  15.0353

          k =-0.3000 0.5000-0.3000 (   783 PWs)   bands (ev):

    -1.7527   3.3987   9.8302   9.9451  12.1396  15.0013

          k = 0.6000-0.4000 0.6000 (   781 PWs)   bands (ev):

    -0.2903   1.3475   9.3510  10.0492  12.1829  14.2577

          k = 0.5000-0.3000 0.5000 (   780 PWs)   bands (ev):

    -0.7797   1.9553   8.9486  10.5420  12.7142  13.8875

          k = 0.4000-0.2000 0.4000 (   780 PWs)   bands (ev):

    -2.1924   4.1906   8.8315  11.2252  13.6302  13.9699

          k = 0.3000-0.1000 0.3000 (   783 PWs)   bands (ev):

    -3.2740   6.7728   9.0350  11.9489  14.5088  14.6914

          k = 0.2000 0.0000 0.2000 (   783 PWs)   bands (ev):

    -3.9811   9.5416   9.5881  12.4321  14.4195  14.6523

          k = 0.0000 0.4000 0.0000 (   785 PWs)   bands (ev):

    -3.4653   9.5071   9.5071   9.9533  11.0410  12.8296

          k =-0.1000 0.5000-0.1000 (   787 PWs)   bands (ev):

    -2.7598   7.1812   8.9944   9.1327  11.0909  12.6208

          k =-0.2000 0.6000-0.2000 (   791 PWs)   bands (ev):

    -1.6810   4.6526   8.0640   8.8135  10.7966  14.4183

          k = 0.7000-0.3000 0.7000 (   782 PWs)   bands (ev):

    -0.2715   2.4369   7.1620   8.9670  10.8864  16.3032

          k = 0.6000-0.2000 0.6000 (   775 PWs)   bands (ev):

     0.2128   1.8390   6.5508   9.4461  11.3903  15.7759

          k = 0.5000-0.1000 0.5000 (   777 PWs)   bands (ev):

    -1.2467   3.8841   6.2744  10.2236  12.2718  15.5541

          k = 0.4000 0.0000 0.4000 (   789 PWs)   bands (ev):

    -2.4435   6.3104   6.3829  11.2100  13.4785  15.6035

          k = 0.0000 0.6000 0.0000 (   793 PWs)   bands (ev):

    -2.1834   7.3978   8.3721   8.3721   9.7930  10.7521

          k =-0.1000 0.7000-0.1000 (   777 PWs)   bands (ev):

    -1.2314   5.8021   6.6518   8.0831   9.8616  11.5522

          k = 0.8000-0.2000 0.8000 (   769 PWs)   bands (ev):

     0.0735   3.8286   5.2311   8.1340   9.9183  13.7875

          k = 0.7000-0.1000 0.7000 (   773 PWs)   bands (ev):

     1.3228   2.3030   4.3937   8.5222  10.3384  16.2957

          k = 0.6000 0.0000 0.6000 (   776 PWs)   bands (ev):

     0.0488   3.8771   4.0213   9.2346  11.1326  17.4087

          k = 0.0000 0.8000 0.0000 (   781 PWs)   bands (ev):

    -0.4077   4.4973   7.6828   7.6828   9.0315   9.7908

          k = 0.9000-0.1000 0.9000 (   772 PWs)   bands (ev):

     0.7758   3.2230   5.9159   7.6234   9.3079  11.0513

          k = 0.8000 0.0000 0.8000 (   764 PWs)   bands (ev):

     2.0873   2.4016   3.9746   7.9056   9.6443  13.5680

          k = 0.0000-1.0000 0.0000 (   790 PWs)   bands (ev):

     1.7682   1.9081   7.4520   7.4520   8.7761   9.4990

          k =-0.2000 0.4000 0.0000 (   788 PWs)   bands (ev):

    -3.2091   7.9620   7.9682  10.9991  13.0223  13.7598

          k =-0.3000 0.5000-0.1000 (   784 PWs)   bands (ev):

    -2.2524   5.3289   7.6423   9.9695  12.9462  14.6595

          k = 0.6000-0.4000 0.8000 (   779 PWs)   bands (ev):

    -0.9405   2.9740   7.6270   9.0402  12.8619  14.1858

          k = 0.5000-0.3000 0.7000 (   782 PWs)   bands (ev):

     0.3271   1.3548   7.7369   8.6035  12.9404  13.7858

          k =-0.2000 0.6000 0.0000 (   786 PWs)   bands (ev):

    -1.9311   6.6323   6.7747   8.2134  11.8526  12.2690

          k = 0.7000-0.3000 0.9000 (   777 PWs)   bands (ev):

    -0.7371   4.3253   6.3572   7.2759  11.9610  14.1322

          k = 0.6000-0.2000 0.8000 (   776 PWs)   bands (ev):

     0.7191   2.3104   5.7692   7.2562  12.2254  15.5229

          k = 0.5000-0.1000 0.7000 (   776 PWs)   bands (ev):

     0.2232   2.9280   5.2938   7.8320  12.8131  15.2077

          k = 0.4000 0.0000 0.6000 (   776 PWs)   bands (ev):

    -1.1793   5.0980   5.1723   8.7829  13.6117  14.8936

          k = 0.8000-0.2000 1.0000 (   775 PWs)   bands (ev):

    -0.1632   4.6252   6.0512   6.4864  11.1331  11.5029

          k = 0.7000-0.1000 0.9000 (   768 PWs)   bands (ev):

     1.2306   3.4105   4.3171   6.4309  11.4789  13.7249

          k = 0.6000 0.0000 0.8000 (   773 PWs)   bands (ev):

     1.6268   3.1403   3.4264   6.9454  11.9987  16.2402

          k =-0.2000-1.0000 0.0000 (   766 PWs)   bands (ev):

     1.9726   2.1549   5.8092   6.1429  10.8913  11.2553

          k = 0.6000-0.2000 1.0000 (   770 PWs)   bands (ev):

     0.5551   4.2826   4.3652   5.9724  14.0231  14.2131

          k = 0.5000-0.1000 0.9000 (   770 PWs)   bands (ev):

     1.8089   2.7694   4.4474   5.4492  14.1493  15.1237

          k =-0.4000-1.0000 0.0000 (   764 PWs)   bands (ev):

     2.4539   2.8941   4.1203   4.7797  13.9521  13.9825

     the Fermi energy is     3.6484 ev

!    total energy              =     -12.41980332 Ry
     estimated scf accuracy    <          1.3E-09 Ry
     smearing contrib. (-TS)   =       0.00097444 Ry
     internal energy E=F+TS    =     -12.42077776 Ry

     The total energy is F=E-TS. E is the sum of the following terms:
     one-electron contribution =       1.95819383 Ry
     hartree contribution      =       0.02529121 Ry
     xc contribution           =      -9.81940073 Ry
     ewald contribution        =      -4.58486207 Ry

     convergence has been achieved in   5 iterations

     Forces acting on atoms (cartesian axes, Ry/au):

     atom    1 type  1   force =     0.00000000    0.00000000    0.00000000

     Total force =     0.000000     Total SCF correction =     0.000000


     Computing stress (Cartesian axis) and pressure

          total   stress  (Ry/bohr**3)                   (kbar)     P=     -115.22
  -0.00078325  -0.00000000   0.00000000         -115.22       -0.00        0.00
   0.00000000  -0.00078325  -0.00000000            0.00     -115.22       -0.00
   0.00000000  -0.00000000  -0.00078325            0.00       -0.00     -115.22


     Writing all to output data dir /Users/zhy/Aluminum-from-First-Principles/convergence-runs/cutoff-kmesh/ecut-040.0-ry_k-10x10x10_degauss-0.050-ry/qe-out/aluminum_ecut-040p0-ry_k-10x10x10_degauss-0p050-ry.save/ :
     XML data file, charge density, pseudopotentials, collected wavefunctions

     init_run     :      0.26s CPU      0.26s WALL (       1 calls)
     electrons    :      0.57s CPU      0.59s WALL (       1 calls)
     forces       :      0.01s CPU      0.01s WALL (       1 calls)
     stress       :      0.04s CPU      0.04s WALL (       1 calls)

     Called by init_run:
     wfcinit      :      0.03s CPU      0.03s WALL (       1 calls)
     potinit      :      0.04s CPU      0.04s WALL (       1 calls)
     hinit0       :      0.16s CPU      0.16s WALL (       1 calls)

     Called by electrons:
     c_bands      :      0.44s CPU      0.46s WALL (       6 calls)
     sum_band     :      0.09s CPU      0.09s WALL (       6 calls)
     v_of_rho     :      0.04s CPU      0.04s WALL (       6 calls)
     newd         :      0.01s CPU      0.01s WALL (       6 calls)
     mix_rho      :      0.00s CPU      0.00s WALL (       6 calls)

     Called by c_bands:
     init_us_2    :      0.01s CPU      0.01s WALL (     705 calls)
     cegterg      :      0.43s CPU      0.45s WALL (     282 calls)

     Called by *egterg:
     cdiaghg      :      0.02s CPU      0.02s WALL (    1053 calls)
     h_psi        :      0.39s CPU      0.40s WALL (    1147 calls)
     s_psi        :      0.00s CPU      0.00s WALL (    1147 calls)
     g_psi        :      0.00s CPU      0.00s WALL (     818 calls)

     Called by h_psi:
     h_psi:calbec :      0.00s CPU      0.01s WALL (    1147 calls)
     vloc_psi     :      0.38s CPU      0.39s WALL (    1147 calls)
     add_vuspsi   :      0.00s CPU      0.00s WALL (    1147 calls)

     General routines
     calbec       :      0.01s CPU      0.01s WALL (    2228 calls)
     fft          :      0.15s CPU      0.15s WALL (     102 calls)
     ffts         :      0.03s CPU      0.03s WALL (      12 calls)
     fftw         :      0.40s CPU      0.41s WALL (   11254 calls)
     interpolate  :      0.03s CPU      0.03s WALL (       6 calls)

     Parallel routines

     PWSCF        :      0.89s CPU      0.93s WALL


   This run was terminated on:  23:45:41  22Sep2026            

=------------------------------------------------------------------------------=
   JOB DONE.
=------------------------------------------------------------------------------=
Note: The following floating-point exceptions are signalling: IEEE_INVALID_FLAG IEEE_DIVIDE_BY_ZERO IEEE_UNDERFLOW_FLAG
Note: The following floating-point exceptions are signalling: IEEE_UNDERFLOW_FLAG
