
     Program PWSCF v.7.6 starts on 23Sep2026 at  1:28: 7 

     This program is part of the open-source Quantum ESPRESSO suite
     for quantum simulation of materials; please cite
         "P. Giannozzi et al., J. Phys.:Condens. Matter 21 395502 (2009);
         "P. Giannozzi et al., J. Phys.:Condens. Matter 29 465901 (2017);
         "P. Giannozzi et al., J. Chem. Phys. 152 154105 (2020);
          URL http://www.quantum-espresso.org", 
     in publications or presentations arising from this work. More details at
     http://www.quantum-espresso.org/quote

     Parallel version (MPI), running on     2 processors

     MPI processes distributed on     1 nodes
     0 MiB available memory on the printing compute node when the environment starts

     Reading input from Al.scf.inp

     Current dimensions of program PWSCF are:
     Max number of different atomic species (ntypx) = 10
     Max number of k-points (npk) =  40000
     Max angular momentum in pseudopotentials (lmaxx) =  4

     R & G space division:  proc/nbgrp/npool/nimage =       2
     Subspace diagonalization in iterative solution of the eigenvalue problem:
     a serial algorithm will be used


     Parallelization info
     --------------------
     sticks:   dense  smooth     PW     G-vecs:    dense   smooth      PW
     Min         384     189     60                 7164     2513     469
     Max         385     190     61                 7167     2516     472
     Sum         769     379    121                14331     5029     941

     Using Slab Decomposition



     bravais-lattice index     =            2
     lattice parameter (alat)  =       9.0000  a.u.
     unit-cell volume          =     182.2500 (a.u.)^3
     number of atoms/cell      =            1
     number of atomic types    =            1
     number of electrons       =         3.00
     number of Kohn-Sham states=            6
     kinetic-energy cutoff     =      35.0000  Ry
     charge density cutoff     =     280.0000  Ry
     scf convergence threshold =      1.0E-08
     mixing beta               =       0.7000
     number of iterations used =            8  plain     mixing
     Exchange-correlation= SLA  PW   PBE  PBE
                           (   1   4   3   4   0   0   0)

     celldm(1)=   9.000000  celldm(2)=   0.000000  celldm(3)=   0.000000
     celldm(4)=   0.000000  celldm(5)=   0.000000  celldm(6)=   0.000000

     crystal axes: (cart. coord. in units of alat)
               a(1) = (  -0.500000   0.000000   0.500000 )  
               a(2) = (   0.000000   0.500000   0.500000 )  
               a(3) = (  -0.500000   0.500000   0.000000 )  

     reciprocal axes: (cart. coord. in units 2 pi/alat)
               b(1) = ( -1.000000 -1.000000  1.000000 )  
               b(2) = (  1.000000  1.000000  1.000000 )  
               b(3) = ( -1.000000  1.000000 -1.000000 )  


     PseudoPot. # 1 for Al read from file:
     /Users/zhy/Aluminum-from-First-Principles/Al.pbe-n-van.UPF
     MD5 check sum: cbc97ad259b400557db688b98a6ada97
     Pseudo is Ultrasoft + core correction, Zval =  3.0
     Generated by new atomic code, or converted to UPF format
     Using radial grid of  893 points,  2 beta functions with: 
                l(1) =   0
                l(2) =   1
     Q(r) pseudized with  8 coefficients,  rinner =    0.900   0.900   0.900


     atomic species   valence    mass     pseudopotential
     Al                3.00    26.98200     Al( 1.00)

     48 Sym. Ops., with inversion, found



   Cartesian axes

     site n.     atom                  positions (alat units)
         1        Al     tau(   1) = (   0.0000000   0.0000000   0.0000000  )

     number of k points=    72  Methfessel-Paxton smearing, width (Ry)=  0.0100
                       cart. coord. in units 2pi/alat
        k(    1) = (   0.0000000   0.0000000   0.0000000), wk =   0.0011574
        k(    2) = (  -0.0833333   0.0833333  -0.0833333), wk =   0.0092593
        k(    3) = (  -0.1666667   0.1666667  -0.1666667), wk =   0.0092593
        k(    4) = (  -0.2500000   0.2500000  -0.2500000), wk =   0.0092593
        k(    5) = (  -0.3333333   0.3333333  -0.3333333), wk =   0.0092593
        k(    6) = (  -0.4166667   0.4166667  -0.4166667), wk =   0.0092593
        k(    7) = (   0.5000000  -0.5000000   0.5000000), wk =   0.0046296
        k(    8) = (   0.0000000   0.1666667   0.0000000), wk =   0.0069444
        k(    9) = (  -0.0833333   0.2500000  -0.0833333), wk =   0.0277778
        k(   10) = (  -0.1666667   0.3333333  -0.1666667), wk =   0.0277778
        k(   11) = (  -0.2500000   0.4166667  -0.2500000), wk =   0.0277778
        k(   12) = (  -0.3333333   0.5000000  -0.3333333), wk =   0.0277778
        k(   13) = (   0.5833333  -0.4166667   0.5833333), wk =   0.0277778
        k(   14) = (   0.5000000  -0.3333333   0.5000000), wk =   0.0277778
        k(   15) = (   0.4166667  -0.2500000   0.4166667), wk =   0.0277778
        k(   16) = (   0.3333333  -0.1666667   0.3333333), wk =   0.0277778
        k(   17) = (   0.2500000  -0.0833333   0.2500000), wk =   0.0277778
        k(   18) = (   0.1666667  -0.0000000   0.1666667), wk =   0.0138889
        k(   19) = (   0.0000000   0.3333333   0.0000000), wk =   0.0069444
        k(   20) = (  -0.0833333   0.4166667  -0.0833333), wk =   0.0277778
        k(   21) = (  -0.1666667   0.5000000  -0.1666667), wk =   0.0277778
        k(   22) = (  -0.2500000   0.5833333  -0.2500000), wk =   0.0277778
        k(   23) = (   0.6666667  -0.3333333   0.6666667), wk =   0.0277778
        k(   24) = (   0.5833333  -0.2500000   0.5833333), wk =   0.0277778
        k(   25) = (   0.5000000  -0.1666667   0.5000000), wk =   0.0277778
        k(   26) = (   0.4166667  -0.0833333   0.4166667), wk =   0.0277778
        k(   27) = (   0.3333333   0.0000000   0.3333333), wk =   0.0138889
        k(   28) = (   0.0000000   0.5000000   0.0000000), wk =   0.0069444
        k(   29) = (  -0.0833333   0.5833333  -0.0833333), wk =   0.0277778
        k(   30) = (  -0.1666667   0.6666667  -0.1666667), wk =   0.0277778
        k(   31) = (   0.7500000  -0.2500000   0.7500000), wk =   0.0277778
        k(   32) = (   0.6666667  -0.1666667   0.6666667), wk =   0.0277778
        k(   33) = (   0.5833333  -0.0833333   0.5833333), wk =   0.0277778
        k(   34) = (   0.5000000   0.0000000   0.5000000), wk =   0.0138889
        k(   35) = (   0.0000000   0.6666667   0.0000000), wk =   0.0069444
        k(   36) = (  -0.0833333   0.7500000  -0.0833333), wk =   0.0277778
        k(   37) = (   0.8333333  -0.1666667   0.8333333), wk =   0.0277778
        k(   38) = (   0.7500000  -0.0833333   0.7500000), wk =   0.0277778
        k(   39) = (   0.6666667   0.0000000   0.6666667), wk =   0.0138889
        k(   40) = (   0.0000000   0.8333333   0.0000000), wk =   0.0069444
        k(   41) = (   0.9166667  -0.0833333   0.9166667), wk =   0.0277778
        k(   42) = (   0.8333333   0.0000000   0.8333333), wk =   0.0138889
        k(   43) = (   0.0000000  -1.0000000   0.0000000), wk =   0.0034722
        k(   44) = (  -0.1666667   0.3333333   0.0000000), wk =   0.0277778
        k(   45) = (  -0.2500000   0.4166667  -0.0833333), wk =   0.0555556
        k(   46) = (  -0.3333333   0.5000000  -0.1666667), wk =   0.0555556
        k(   47) = (   0.5833333  -0.4166667   0.7500000), wk =   0.0555556
        k(   48) = (   0.5000000  -0.3333333   0.6666667), wk =   0.0277778
        k(   49) = (  -0.1666667   0.5000000   0.0000000), wk =   0.0277778
        k(   50) = (  -0.2500000   0.5833333  -0.0833333), wk =   0.0555556
        k(   51) = (   0.6666667  -0.3333333   0.8333333), wk =   0.0555556
        k(   52) = (   0.5833333  -0.2500000   0.7500000), wk =   0.0555556
        k(   53) = (   0.5000000  -0.1666667   0.6666667), wk =   0.0555556
        k(   54) = (   0.4166667  -0.0833333   0.5833333), wk =   0.0555556
        k(   55) = (   0.3333333   0.0000000   0.5000000), wk =   0.0277778
        k(   56) = (  -0.1666667   0.6666667  -0.0000000), wk =   0.0277778
        k(   57) = (   0.7500000  -0.2500000   0.9166667), wk =   0.0555556
        k(   58) = (   0.6666667  -0.1666667   0.8333333), wk =   0.0555556
        k(   59) = (   0.5833333  -0.0833333   0.7500000), wk =   0.0555556
        k(   60) = (   0.5000000   0.0000000   0.6666667), wk =   0.0277778
        k(   61) = (   0.8333333  -0.1666667   1.0000000), wk =   0.0277778
        k(   62) = (   0.7500000  -0.0833333   0.9166667), wk =   0.0555556
        k(   63) = (   0.6666667   0.0000000   0.8333333), wk =   0.0277778
        k(   64) = (  -0.1666667  -1.0000000   0.0000000), wk =   0.0138889
        k(   65) = (   0.6666667  -0.3333333   1.0000000), wk =   0.0277778
        k(   66) = (   0.5833333  -0.2500000   0.9166667), wk =   0.0555556
        k(   67) = (   0.5000000  -0.1666667   0.8333333), wk =   0.0277778
        k(   68) = (   0.6666667  -0.1666667   1.0000000), wk =   0.0277778
        k(   69) = (   0.5833333  -0.0833333   0.9166667), wk =   0.0555556
        k(   70) = (   0.5000000   0.0000000   0.8333333), wk =   0.0277778
        k(   71) = (  -0.3333333  -1.0000000   0.0000000), wk =   0.0138889
        k(   72) = (  -0.5000000  -1.0000000   0.0000000), wk =   0.0069444

     Dense  grid:    14331 G-vectors     FFT dimensions: (  36,  36,  36)

     Smooth grid:     5029 G-vectors     FFT dimensions: (  24,  24,  24)

     Estimated max dynamical RAM per process >       9.43 MB

     Estimated total dynamical RAM >      18.86 MB

     Initial potential from superposition of free atoms

     starting charge       2.9975, renormalised to       3.0000
     Starting wfcs are    4 randomized atomic wfcs +    2 random wfcs

     total cpu time spent up to now is        0.4 secs

     Self-consistent Calculation

     iteration #  1     ecut=    35.00 Ry     beta= 0.70
     Davidson diagonalization with overlap
     ethr =  1.00E-02,  avg # of iterations =  5.3

     Threshold (ethr) on eigenvalues was too large:
     Diagonalizing with lowered threshold

     Davidson diagonalization with overlap
     ethr =  1.80E-04,  avg # of iterations =  2.8

     total cpu time spent up to now is        0.7 secs

     total energy              =     -12.41927649 Ry
     estimated scf accuracy    <       0.00522622 Ry

     iteration #  2     ecut=    35.00 Ry     beta= 0.70
     Davidson diagonalization with overlap
     ethr =  1.74E-04,  avg # of iterations =  1.0

     total cpu time spent up to now is        0.8 secs

     total energy              =     -12.41940122 Ry
     estimated scf accuracy    <       0.00024517 Ry

     iteration #  3     ecut=    35.00 Ry     beta= 0.70
     Davidson diagonalization with overlap
     c_bands:  1 eigenvalues not converged
     ethr =  8.17E-06,  avg # of iterations =  4.1

     total cpu time spent up to now is        1.0 secs

     total energy              =     -12.41943528 Ry
     estimated scf accuracy    <       0.00000111 Ry

     iteration #  4     ecut=    35.00 Ry     beta= 0.70
     Davidson diagonalization with overlap
     c_bands:  1 eigenvalues not converged
     ethr =  3.69E-08,  avg # of iterations =  3.4

     total cpu time spent up to now is        1.1 secs

     total energy              =     -12.41943667 Ry
     estimated scf accuracy    <       0.00000007 Ry

     iteration #  5     ecut=    35.00 Ry     beta= 0.70
     Davidson diagonalization with overlap
     ethr =  2.34E-09,  avg # of iterations =  1.4

     total cpu time spent up to now is        1.2 secs

     End of self-consistent calculation

          k = 0.0000 0.0000 0.0000 (   609 PWs)   bands (ev):

    -4.4991  12.4172  12.4172  12.4172  13.9206  13.9206

          k =-0.0833 0.0833-0.0833 (   624 PWs)   bands (ev):

    -4.3644  10.8493  12.0594  12.0594  14.2083  14.4299

          k =-0.1667 0.1667-0.1667 (   637 PWs)   bands (ev):

    -3.9608   8.4857  11.5366  11.5367  14.0442  15.1132

          k =-0.2500 0.2500-0.2500 (   631 PWs)   bands (ev):

    -3.2916   6.1688  11.1489  11.1489  13.7977  14.7247

          k =-0.3333 0.3333-0.3333 (   613 PWs)   bands (ev):

    -2.3638   4.0299  10.9288  10.9288  13.6522  13.9381

          k =-0.4167 0.4167-0.4167 (   628 PWs)   bands (ev):

    -1.2019   2.1313  10.8433  10.8433  13.3569  13.3569

          k = 0.5000-0.5000 0.5000 (   628 PWs)   bands (ev):

    -0.1832   0.8658  10.8286  10.8286  13.1441  13.6214

          k = 0.0000 0.1667 0.0000 (   625 PWs)   bands (ev):

    -4.3194  11.3261  11.3262  11.8717  12.9726  15.2334

          k =-0.0833 0.2500-0.0833 (   632 PWs)   bands (ev):

    -4.0054   9.3602  10.6939  11.5727  13.1693  15.4121

          k =-0.1667 0.3333-0.1667 (   626 PWs)   bands (ev):

    -3.4246   7.0276  10.2576  11.0695  13.2993  14.9386

          k =-0.2500 0.4167-0.2500 (   630 PWs)   bands (ev):

    -2.5823   4.8285  10.0374  10.5984  12.7125  14.8554

          k =-0.3333 0.5000-0.3333 (   632 PWs)   bands (ev):

    -1.4932   2.8448  10.0345  10.1357  12.3612  14.5381

          k = 0.5833-0.4167 0.5833 (   633 PWs)   bands (ev):

    -0.2711   1.2127   9.7039  10.2358  12.4149  13.9706

          k = 0.5000-0.3333 0.5000 (   629 PWs)   bands (ev):

    -0.6647   1.6886   9.3889  10.6118  12.8199  13.6803

          k = 0.4167-0.2500 0.4167 (   627 PWs)   bands (ev):

    -1.8819   3.4790   9.2545  11.1053  13.5062  13.7222

          k = 0.3333-0.1667 0.3333 (   627 PWs)   bands (ev):

    -2.8917   5.5416   9.3321  11.6388  14.1276  14.3434

          k = 0.2500-0.0833 0.2500 (   631 PWs)   bands (ev):

    -3.6477   7.7999   9.6320  12.1473  14.6092  14.6215

          k = 0.1667-0.0000 0.1667 (   630 PWs)   bands (ev):

    -4.1400  10.1145  10.1864  12.4549  14.2685  14.4968

          k = 0.0000 0.3333 0.0000 (   637 PWs)   bands (ev):

    -3.7813   9.9791   9.9791  10.6064  11.5558  13.8407

          k =-0.0833 0.4167-0.0833 (   627 PWs)   bands (ev):

    -3.2899   8.0680   9.4704  10.0892  11.7068  13.0813

          k =-0.1667 0.5000-0.1667 (   630 PWs)   bands (ev):

    -2.5352   5.8546   9.1867   9.3264  11.4043  14.1004

          k =-0.2500 0.5833-0.2500 (   632 PWs)   bands (ev):

    -1.5271   3.8084   8.5503   9.1333  11.1809  15.5519

          k = 0.6667-0.3333 0.6667 (   640 PWs)   bands (ev):

    -0.3116   2.0258   7.8852   9.3085  11.2892  15.5958

          k = 0.5833-0.2500 0.5833 (   641 PWs)   bands (ev):

     0.0797   1.5542   7.4066   9.7042  11.6977  15.1416

          k = 0.5000-0.1667 0.5000 (   631 PWs)   bands (ev):

    -1.1416   3.1841   7.1488  10.3017  12.3757  14.9375

          k = 0.4167-0.0833 0.4167 (   635 PWs)   bands (ev):

    -2.2282   5.1594   7.1258  11.0554  13.2919  15.0083

          k = 0.3333 0.0000 0.3333 (   630 PWs)   bands (ev):

    -3.0684   7.3216   7.3641  11.8322  14.3778  15.3079

          k = 0.0000 0.5000 0.0000 (   632 PWs)   bands (ev):

    -2.8882   8.7766   8.8853   8.8853  10.3599  11.6084

          k =-0.0833 0.5833-0.0833 (   635 PWs)   bands (ev):

    -2.2226   6.9786   8.0044   8.5270  10.4055  11.7421

          k =-0.1667 0.6667-0.1667 (   634 PWs)   bands (ev):

    -1.3001   4.9705   6.9691   8.4026  10.2697  13.3187

          k = 0.7500-0.2500 0.7500 (   643 PWs)   bands (ev):

    -0.1442   3.1213   6.1291   8.5125  10.3574  15.2106

          k = 0.6667-0.1667 0.6667 (   641 PWs)   bands (ev):

     0.8702   1.8762   5.5184   8.8541  10.7184  17.0021

          k = 0.5833-0.0833 0.5833 (   639 PWs)   bands (ev):

    -0.1553   3.1493   5.1505   9.4183  11.3434  16.6486

          k = 0.5000 0.0000 0.5000 (   636 PWs)   bands (ev):

    -1.3081   4.9770   5.0804  10.1797  12.2147  16.3323

          k = 0.0000 0.6667 0.0000 (   640 PWs)   bands (ev):

    -1.6465   6.4262   8.0918   8.0918   9.4847  10.3410

          k =-0.0833 0.7500-0.0833 (   640 PWs)   bands (ev):

    -0.8120   5.2283   6.6272   7.8909   9.6118  10.9989

          k = 0.8333-0.1667 0.8333 (   640 PWs)   bands (ev):

     0.2665   4.0495   4.9688   7.9267   9.6778  12.8409

          k = 0.7500-0.0833 0.7500 (   644 PWs)   bands (ev):

     1.4746   2.7620   3.9479   8.1985   9.9762  14.9574

          k = 0.6667 0.0000 0.6667 (   650 PWs)   bands (ev):

     1.0294   3.2765   3.4958   8.7003  10.5338  17.1265

          k = 0.0000 0.8333 0.0000 (   636 PWs)   bands (ev):

    -0.0665   4.0293   7.6125   7.6125   8.9547   9.7009

          k = 0.9167-0.0833 0.9167 (   640 PWs)   bands (ev):

     0.9267   2.9747   6.2286   7.5710   9.2337  10.6439

          k = 0.8333 0.0000 0.8333 (   640 PWs)   bands (ev):

     2.0212   2.2504   4.5470   7.7674   9.4878  12.6807

          k = 0.0000-1.0000 0.0000 (   636 PWs)   bands (ev):

     1.7667   1.9076   7.4520   7.4520   8.7772   9.4994

          k =-0.1667 0.3333 0.0000 (   630 PWs)   bands (ev):

    -3.6027   8.7454   8.7729  11.5750  13.0618  14.3366

          k =-0.2500 0.4167-0.0833 (   632 PWs)   bands (ev):

    -2.9349   6.4849   8.3785  10.9268  13.1119  14.5714

          k =-0.3333 0.5000-0.1667 (   631 PWs)   bands (ev):

    -2.0090   4.3614   8.2220  10.1314  12.8358  14.5617

          k = 0.5833-0.4167 0.7500 (   637 PWs)   bands (ev):

    -0.8492   2.4706   8.2622   9.4655  12.7951  13.9388

          k = 0.5000-0.3333 0.6667 (   636 PWs)   bands (ev):

     0.1707   1.2055   8.3520   9.1600  12.8557  13.6400

          k =-0.1667 0.5000 0.0000 (   630 PWs)   bands (ev):

    -2.7114   7.5601   7.6274   9.5354  11.9340  12.5574

          k =-0.2500 0.5833-0.0833 (   632 PWs)   bands (ev):

    -1.8725   5.4628   7.3149   8.6020  11.9587  13.7302

          k = 0.6667-0.3333 0.8333 (   638 PWs)   bands (ev):

    -0.7877   3.5079   7.0888   7.9692  11.9620  15.1924

          k = 0.5833-0.2500 0.7500 (   643 PWs)   bands (ev):

     0.4322   1.8876   6.6746   7.9784  12.2074  15.0283

          k = 0.5000-0.1667 0.6667 (   645 PWs)   bands (ev):

     0.0350   2.3678   6.2998   8.4225  12.6803  14.6873

          k = 0.4167-0.0833 0.5833 (   638 PWs)   bands (ev):

    -1.1776   4.1459   6.1251   9.1360  13.3253  14.5788

          k = 0.3333 0.0000 0.5000 (   637 PWs)   bands (ev):

    -2.1826   6.1546   6.2122  10.0442  13.9406  14.3413

          k =-0.1667 0.6667-0.0000 (   641 PWs)   bands (ev):

    -1.4726   6.2587   6.7972   7.4701  11.1026  11.5600

          k = 0.7500-0.2500 0.9167 (   646 PWs)   bands (ev):

    -0.4710   4.6739   5.8042   7.0234  11.2568  13.1134

          k = 0.6667-0.1667 0.8333 (   642 PWs)   bands (ev):

     0.7374   2.9890   5.0239   7.1447  11.4560  15.0908

          k = 0.5833-0.0833 0.7500 (   645 PWs)   bands (ev):

     1.1088   2.5624   4.4820   7.5656  11.8922  16.4233

          k = 0.5000 0.0000 0.6667 (   643 PWs)   bands (ev):

    -0.1032   4.1284   4.2433   8.2403  12.5509  16.3082

          k = 0.8333-0.1667 1.0000 (   644 PWs)   bands (ev):

     0.1021   4.1469   6.2960   6.6308  10.5977  11.0167

          k = 0.7500-0.0833 0.9167 (   643 PWs)   bands (ev):

     1.2451   3.2212   4.6973   6.5919  10.9128  12.7980

          k = 0.6667 0.0000 0.8333 (   647 PWs)   bands (ev):

     2.0884   2.7639   3.4528   6.9503  11.2877  14.9805

          k =-0.1667-1.0000 0.0000 (   648 PWs)   bands (ev):

     1.9101   2.0790   6.1285   6.4212  10.4283  10.8397

          k = 0.6667-0.3333 1.0000 (   641 PWs)   bands (ev):

    -0.9539   5.3002   5.3120   7.5555  13.5497  13.5742

          k = 0.5833-0.2500 0.9167 (   645 PWs)   bands (ev):

     0.1971   3.4622   5.3529   6.7595  13.5805  14.7278

          k = 0.5000-0.1667 0.8333 (   648 PWs)   bands (ev):

     1.2158   2.2080   5.4463   6.4149  13.6423  14.6076

          k = 0.6667-0.1667 1.0000 (   646 PWs)   bands (ev):

     0.5996   4.2730   4.8040   5.6292  13.0637  13.1914

          k = 0.5833-0.0833 0.9167 (   642 PWs)   bands (ev):

     1.7994   3.1045   4.1281   5.4612  13.3761  15.1184

          k = 0.5000 0.0000 0.8333 (   642 PWs)   bands (ev):

     1.3786   3.6174   3.7191   5.9353  13.7932  15.8477

          k =-0.3333-1.0000 0.0000 (   642 PWs)   bands (ev):

     2.2882   2.5928   4.6344   5.1449  12.9003  13.0513

          k =-0.5000-1.0000 0.0000 (   648 PWs)   bands (ev):

     2.5766   3.4467   3.4467   4.5408  14.7984  15.6908

     the Fermi energy is     3.5248 ev

!    total energy              =     -12.41943668 Ry
     estimated scf accuracy    <          1.8E-09 Ry
     smearing contrib. (-TS)   =      -0.00014526 Ry
     internal energy E=F+TS    =     -12.41929142 Ry

     The total energy is F=E-TS. E is the sum of the following terms:
     one-electron contribution =       1.95940072 Ry
     hartree contribution      =       0.02505605 Ry
     xc contribution           =      -9.81888611 Ry
     ewald contribution        =      -4.58486207 Ry

     convergence has been achieved in   5 iterations

     Forces acting on atoms (cartesian axes, Ry/au):

     atom    1 type  1   force =     0.00000000    0.00000000    0.00000000

     Total force =     0.000000     Total SCF correction =     0.000000


     Computing stress (Cartesian axis) and pressure

          total   stress  (Ry/bohr**3)                   (kbar)     P=     -116.61
  -0.00079267   0.00000000   0.00000000         -116.61        0.00        0.00
   0.00000000  -0.00079267  -0.00000000            0.00     -116.61       -0.00
   0.00000000  -0.00000000  -0.00079267            0.00       -0.00     -116.61


     Writing all to output data dir /Users/zhy/Aluminum-from-First-Principles/convergence-runs/smearing/ecut-035.0-ry_k-12x12x12_degauss-0.010-ry/qe-out/aluminum_ecut-035p0-ry_k-12x12x12_degauss-0p010-ry.save/ :
     XML data file, charge density, pseudopotentials, collected wavefunctions

     init_run     :      0.33s CPU      0.35s WALL (       1 calls)
     electrons    :      0.83s CPU      0.87s WALL (       1 calls)
     forces       :      0.01s CPU      0.01s WALL (       1 calls)
     stress       :      0.04s CPU      0.04s WALL (       1 calls)

     Called by init_run:
     wfcinit      :      0.04s CPU      0.04s WALL (       1 calls)
     potinit      :      0.10s CPU      0.10s WALL (       1 calls)
     hinit0       :      0.17s CPU      0.19s WALL (       1 calls)

     Called by electrons:
     c_bands      :      0.67s CPU      0.70s WALL (       6 calls)
     sum_band     :      0.13s CPU      0.13s WALL (       6 calls)
     v_of_rho     :      0.03s CPU      0.03s WALL (       6 calls)
     newd         :      0.01s CPU      0.01s WALL (       6 calls)
     mix_rho      :      0.00s CPU      0.00s WALL (       6 calls)

     Called by c_bands:
     init_us_2    :      0.02s CPU      0.02s WALL (    1080 calls)
     cegterg      :      0.66s CPU      0.69s WALL (     432 calls)

     Called by *egterg:
     cdiaghg      :      0.04s CPU      0.04s WALL (    1653 calls)
     h_psi        :      0.59s CPU      0.61s WALL (    1797 calls)
     s_psi        :      0.00s CPU      0.01s WALL (    1797 calls)
     g_psi        :      0.00s CPU      0.00s WALL (    1293 calls)

     Called by h_psi:
     h_psi:calbec :      0.01s CPU      0.01s WALL (    1797 calls)
     vloc_psi     :      0.57s CPU      0.59s WALL (    1797 calls)
     add_vuspsi   :      0.00s CPU      0.01s WALL (    1797 calls)

     General routines
     calbec       :      0.02s CPU      0.02s WALL (    3453 calls)
     fft          :      0.16s CPU      0.18s WALL (     102 calls)
     ffts         :      0.09s CPU      0.10s WALL (      12 calls)
     fftw         :      0.61s CPU      0.63s WALL (   17302 calls)
     interpolate  :      0.09s CPU      0.10s WALL (       6 calls)

     Parallel routines

     PWSCF        :      1.22s CPU      1.31s WALL


   This run was terminated on:   1:28: 8  23Sep2026            

=------------------------------------------------------------------------------=
   JOB DONE.
=------------------------------------------------------------------------------=
Note: The following floating-point exceptions are signalling: IEEE_UNDERFLOW_FLAG
Note: The following floating-point exceptions are signalling: IEEE_INVALID_FLAG IEEE_DIVIDE_BY_ZERO IEEE_UNDERFLOW_FLAG
