
     Program PWSCF v.7.6 starts on 23Sep2026 at  1:12:48 

     This program is part of the open-source Quantum ESPRESSO suite
     for quantum simulation of materials; please cite
         "P. Giannozzi et al., J. Phys.:Condens. Matter 21 395502 (2009);
         "P. Giannozzi et al., J. Phys.:Condens. Matter 29 465901 (2017);
         "P. Giannozzi et al., J. Chem. Phys. 152 154105 (2020);
          URL http://www.quantum-espresso.org", 
     in publications or presentations arising from this work. More details at
     http://www.quantum-espresso.org/quote

     Parallel version (MPI), running on     2 processors

     MPI processes distributed on     1 nodes
     0 MiB available memory on the printing compute node when the environment starts

     Reading input from Al.scf.inp

     Current dimensions of program PWSCF are:
     Max number of different atomic species (ntypx) = 10
     Max number of k-points (npk) =  40000
     Max angular momentum in pseudopotentials (lmaxx) =  4

     R & G space division:  proc/nbgrp/npool/nimage =       2
     Subspace diagonalization in iterative solution of the eigenvalue problem:
     a serial algorithm will be used


     Parallelization info
     --------------------
     sticks:   dense  smooth     PW     G-vecs:    dense   smooth      PW
     Min         501     249     81                10436     3694     681
     Max         502     250     82                10439     3697     682
     Sum        1003     499    163                20875     7391    1363

     Using Slab Decomposition



     bravais-lattice index     =            2
     lattice parameter (alat)  =       9.0000  a.u.
     unit-cell volume          =     182.2500 (a.u.)^3
     number of atoms/cell      =            1
     number of atomic types    =            1
     number of electrons       =         3.00
     number of Kohn-Sham states=            6
     kinetic-energy cutoff     =      45.0000  Ry
     charge density cutoff     =     360.0000  Ry
     scf convergence threshold =      1.0E-08
     mixing beta               =       0.7000
     number of iterations used =            8  plain     mixing
     Exchange-correlation= SLA  PW   PBE  PBE
                           (   1   4   3   4   0   0   0)

     celldm(1)=   9.000000  celldm(2)=   0.000000  celldm(3)=   0.000000
     celldm(4)=   0.000000  celldm(5)=   0.000000  celldm(6)=   0.000000

     crystal axes: (cart. coord. in units of alat)
               a(1) = (  -0.500000   0.000000   0.500000 )  
               a(2) = (   0.000000   0.500000   0.500000 )  
               a(3) = (  -0.500000   0.500000   0.000000 )  

     reciprocal axes: (cart. coord. in units 2 pi/alat)
               b(1) = ( -1.000000 -1.000000  1.000000 )  
               b(2) = (  1.000000  1.000000  1.000000 )  
               b(3) = ( -1.000000  1.000000 -1.000000 )  


     PseudoPot. # 1 for Al read from file:
     /Users/zhy/Aluminum-from-First-Principles/Al.pbe-n-van.UPF
     MD5 check sum: cbc97ad259b400557db688b98a6ada97
     Pseudo is Ultrasoft + core correction, Zval =  3.0
     Generated by new atomic code, or converted to UPF format
     Using radial grid of  893 points,  2 beta functions with: 
                l(1) =   0
                l(2) =   1
     Q(r) pseudized with  8 coefficients,  rinner =    0.900   0.900   0.900


     atomic species   valence    mass     pseudopotential
     Al                3.00    26.98200     Al( 1.00)

     48 Sym. Ops., with inversion, found



   Cartesian axes

     site n.     atom                  positions (alat units)
         1        Al     tau(   1) = (   0.0000000   0.0000000   0.0000000  )

     number of k points=    72  Methfessel-Paxton smearing, width (Ry)=  0.0500
                       cart. coord. in units 2pi/alat
        k(    1) = (   0.0000000   0.0000000   0.0000000), wk =   0.0011574
        k(    2) = (  -0.0833333   0.0833333  -0.0833333), wk =   0.0092593
        k(    3) = (  -0.1666667   0.1666667  -0.1666667), wk =   0.0092593
        k(    4) = (  -0.2500000   0.2500000  -0.2500000), wk =   0.0092593
        k(    5) = (  -0.3333333   0.3333333  -0.3333333), wk =   0.0092593
        k(    6) = (  -0.4166667   0.4166667  -0.4166667), wk =   0.0092593
        k(    7) = (   0.5000000  -0.5000000   0.5000000), wk =   0.0046296
        k(    8) = (   0.0000000   0.1666667   0.0000000), wk =   0.0069444
        k(    9) = (  -0.0833333   0.2500000  -0.0833333), wk =   0.0277778
        k(   10) = (  -0.1666667   0.3333333  -0.1666667), wk =   0.0277778
        k(   11) = (  -0.2500000   0.4166667  -0.2500000), wk =   0.0277778
        k(   12) = (  -0.3333333   0.5000000  -0.3333333), wk =   0.0277778
        k(   13) = (   0.5833333  -0.4166667   0.5833333), wk =   0.0277778
        k(   14) = (   0.5000000  -0.3333333   0.5000000), wk =   0.0277778
        k(   15) = (   0.4166667  -0.2500000   0.4166667), wk =   0.0277778
        k(   16) = (   0.3333333  -0.1666667   0.3333333), wk =   0.0277778
        k(   17) = (   0.2500000  -0.0833333   0.2500000), wk =   0.0277778
        k(   18) = (   0.1666667  -0.0000000   0.1666667), wk =   0.0138889
        k(   19) = (   0.0000000   0.3333333   0.0000000), wk =   0.0069444
        k(   20) = (  -0.0833333   0.4166667  -0.0833333), wk =   0.0277778
        k(   21) = (  -0.1666667   0.5000000  -0.1666667), wk =   0.0277778
        k(   22) = (  -0.2500000   0.5833333  -0.2500000), wk =   0.0277778
        k(   23) = (   0.6666667  -0.3333333   0.6666667), wk =   0.0277778
        k(   24) = (   0.5833333  -0.2500000   0.5833333), wk =   0.0277778
        k(   25) = (   0.5000000  -0.1666667   0.5000000), wk =   0.0277778
        k(   26) = (   0.4166667  -0.0833333   0.4166667), wk =   0.0277778
        k(   27) = (   0.3333333   0.0000000   0.3333333), wk =   0.0138889
        k(   28) = (   0.0000000   0.5000000   0.0000000), wk =   0.0069444
        k(   29) = (  -0.0833333   0.5833333  -0.0833333), wk =   0.0277778
        k(   30) = (  -0.1666667   0.6666667  -0.1666667), wk =   0.0277778
        k(   31) = (   0.7500000  -0.2500000   0.7500000), wk =   0.0277778
        k(   32) = (   0.6666667  -0.1666667   0.6666667), wk =   0.0277778
        k(   33) = (   0.5833333  -0.0833333   0.5833333), wk =   0.0277778
        k(   34) = (   0.5000000   0.0000000   0.5000000), wk =   0.0138889
        k(   35) = (   0.0000000   0.6666667   0.0000000), wk =   0.0069444
        k(   36) = (  -0.0833333   0.7500000  -0.0833333), wk =   0.0277778
        k(   37) = (   0.8333333  -0.1666667   0.8333333), wk =   0.0277778
        k(   38) = (   0.7500000  -0.0833333   0.7500000), wk =   0.0277778
        k(   39) = (   0.6666667   0.0000000   0.6666667), wk =   0.0138889
        k(   40) = (   0.0000000   0.8333333   0.0000000), wk =   0.0069444
        k(   41) = (   0.9166667  -0.0833333   0.9166667), wk =   0.0277778
        k(   42) = (   0.8333333   0.0000000   0.8333333), wk =   0.0138889
        k(   43) = (   0.0000000  -1.0000000   0.0000000), wk =   0.0034722
        k(   44) = (  -0.1666667   0.3333333   0.0000000), wk =   0.0277778
        k(   45) = (  -0.2500000   0.4166667  -0.0833333), wk =   0.0555556
        k(   46) = (  -0.3333333   0.5000000  -0.1666667), wk =   0.0555556
        k(   47) = (   0.5833333  -0.4166667   0.7500000), wk =   0.0555556
        k(   48) = (   0.5000000  -0.3333333   0.6666667), wk =   0.0277778
        k(   49) = (  -0.1666667   0.5000000   0.0000000), wk =   0.0277778
        k(   50) = (  -0.2500000   0.5833333  -0.0833333), wk =   0.0555556
        k(   51) = (   0.6666667  -0.3333333   0.8333333), wk =   0.0555556
        k(   52) = (   0.5833333  -0.2500000   0.7500000), wk =   0.0555556
        k(   53) = (   0.5000000  -0.1666667   0.6666667), wk =   0.0555556
        k(   54) = (   0.4166667  -0.0833333   0.5833333), wk =   0.0555556
        k(   55) = (   0.3333333   0.0000000   0.5000000), wk =   0.0277778
        k(   56) = (  -0.1666667   0.6666667  -0.0000000), wk =   0.0277778
        k(   57) = (   0.7500000  -0.2500000   0.9166667), wk =   0.0555556
        k(   58) = (   0.6666667  -0.1666667   0.8333333), wk =   0.0555556
        k(   59) = (   0.5833333  -0.0833333   0.7500000), wk =   0.0555556
        k(   60) = (   0.5000000   0.0000000   0.6666667), wk =   0.0277778
        k(   61) = (   0.8333333  -0.1666667   1.0000000), wk =   0.0277778
        k(   62) = (   0.7500000  -0.0833333   0.9166667), wk =   0.0555556
        k(   63) = (   0.6666667   0.0000000   0.8333333), wk =   0.0277778
        k(   64) = (  -0.1666667  -1.0000000   0.0000000), wk =   0.0138889
        k(   65) = (   0.6666667  -0.3333333   1.0000000), wk =   0.0277778
        k(   66) = (   0.5833333  -0.2500000   0.9166667), wk =   0.0555556
        k(   67) = (   0.5000000  -0.1666667   0.8333333), wk =   0.0277778
        k(   68) = (   0.6666667  -0.1666667   1.0000000), wk =   0.0277778
        k(   69) = (   0.5833333  -0.0833333   0.9166667), wk =   0.0555556
        k(   70) = (   0.5000000   0.0000000   0.8333333), wk =   0.0277778
        k(   71) = (  -0.3333333  -1.0000000   0.0000000), wk =   0.0138889
        k(   72) = (  -0.5000000  -1.0000000   0.0000000), wk =   0.0069444

     Dense  grid:    20875 G-vectors     FFT dimensions: (  40,  40,  40)

     Smooth grid:     7391 G-vectors     FFT dimensions: (  27,  27,  27)

     Estimated max dynamical RAM per process >      13.57 MB

     Estimated total dynamical RAM >      27.14 MB

     Initial potential from superposition of free atoms

     starting charge       2.9975, renormalised to       3.0000
     Starting wfcs are    4 randomized atomic wfcs +    2 random wfcs

     total cpu time spent up to now is        0.3 secs

     Self-consistent Calculation

     iteration #  1     ecut=    45.00 Ry     beta= 0.70
     Davidson diagonalization with overlap
     ethr =  1.00E-02,  avg # of iterations =  5.4

     Threshold (ethr) on eigenvalues was too large:
     Diagonalizing with lowered threshold

     Davidson diagonalization with overlap
     ethr =  1.80E-04,  avg # of iterations =  2.8

     total cpu time spent up to now is        0.8 secs

     total energy              =     -12.41939302 Ry
     estimated scf accuracy    <       0.00521550 Ry

     iteration #  2     ecut=    45.00 Ry     beta= 0.70
     Davidson diagonalization with overlap
     ethr =  1.74E-04,  avg # of iterations =  1.0

     total cpu time spent up to now is        1.0 secs

     total energy              =     -12.41952180 Ry
     estimated scf accuracy    <       0.00024391 Ry

     iteration #  3     ecut=    45.00 Ry     beta= 0.70
     Davidson diagonalization with overlap
     c_bands:  1 eigenvalues not converged
     c_bands:  1 eigenvalues not converged
     ethr =  8.13E-06,  avg # of iterations =  4.1

     total cpu time spent up to now is        1.3 secs

     total energy              =     -12.41955694 Ry
     estimated scf accuracy    <       0.00000109 Ry

     iteration #  4     ecut=    45.00 Ry     beta= 0.70
     Davidson diagonalization with overlap
     ethr =  3.62E-08,  avg # of iterations =  3.3

     total cpu time spent up to now is        1.5 secs

     total energy              =     -12.41955845 Ry
     estimated scf accuracy    <       0.00000006 Ry

     iteration #  5     ecut=    45.00 Ry     beta= 0.70
     Davidson diagonalization with overlap
     ethr =  2.06E-09,  avg # of iterations =  1.5

     total cpu time spent up to now is        1.7 secs

     End of self-consistent calculation

          k = 0.0000 0.0000 0.0000 (   941 PWs)   bands (ev):

    -4.4990  12.4134  12.4134  12.4134  13.9169  13.9169

          k =-0.0833 0.0833-0.0833 (   929 PWs)   bands (ev):

    -4.3642  10.8467  12.0564  12.0564  14.2052  14.4264

          k =-0.1667 0.1667-0.1667 (   917 PWs)   bands (ev):

    -3.9606   8.4850  11.5342  11.5342  14.0410  15.1097

          k =-0.2500 0.2500-0.2500 (   932 PWs)   bands (ev):

    -3.2914   6.1681  11.1465  11.1465  13.7942  14.7214

          k =-0.3333 0.3333-0.3333 (   926 PWs)   bands (ev):

    -2.3637   4.0292  10.9258  10.9258  13.6481  13.9347

          k =-0.4167 0.4167-0.4167 (   932 PWs)   bands (ev):

    -1.2018   2.1311  10.8407  10.8407  13.3539  13.3539

          k = 0.5000-0.5000 0.5000 (   912 PWs)   bands (ev):

    -0.1830   0.8657  10.8260  10.8260  13.1412  13.6165

          k = 0.0000 0.1667 0.0000 (   933 PWs)   bands (ev):

    -4.3192  11.3234  11.3234  11.8687  12.9699  15.2296

          k =-0.0833 0.2500-0.0833 (   926 PWs)   bands (ev):

    -4.0053   9.3590  10.6915  11.5698  13.1665  15.4091

          k =-0.1667 0.3333-0.1667 (   927 PWs)   bands (ev):

    -3.4245   7.0268  10.2553  11.0667  13.2967  14.9353

          k =-0.2500 0.4167-0.2500 (   929 PWs)   bands (ev):

    -2.5821   4.8278  10.0355  10.5962  12.7102  14.8518

          k =-0.3333 0.5000-0.3333 (   920 PWs)   bands (ev):

    -1.4931   2.8444  10.0324  10.1335  12.3588  14.5362

          k = 0.5833-0.4167 0.5833 (   926 PWs)   bands (ev):

    -0.2710   1.2126   9.7016  10.2335  12.4125  13.9677

          k = 0.5000-0.3333 0.5000 (   929 PWs)   bands (ev):

    -0.6646   1.6884   9.3867  10.6092  12.8172  13.6773

          k = 0.4167-0.2500 0.4167 (   928 PWs)   bands (ev):

    -1.8817   3.4785   9.2527  11.1027  13.5033  13.7194

          k = 0.3333-0.1667 0.3333 (   932 PWs)   bands (ev):

    -2.8916   5.5409   9.3303  11.6361  14.1242  14.3394

          k = 0.2500-0.0833 0.2500 (   926 PWs)   bands (ev):

    -3.6476   7.7991   9.6302  12.1445  14.6059  14.6180

          k = 0.1667-0.0000 0.1667 (   925 PWs)   bands (ev):

    -4.1398  10.1127  10.1841  12.4519  14.2649  14.4938

          k = 0.0000 0.3333 0.0000 (   929 PWs)   bands (ev):

    -3.7811   9.9775   9.9775  10.6045  11.5537  13.8387

          k =-0.0833 0.4167-0.0833 (   929 PWs)   bands (ev):

    -3.2897   8.0668   9.4687  10.0869  11.7046  13.0791

          k =-0.1667 0.5000-0.1667 (   937 PWs)   bands (ev):

    -2.5351   5.8538   9.1850   9.3244  11.4024  14.0977

          k =-0.2500 0.5833-0.2500 (   921 PWs)   bands (ev):

    -1.5270   3.8079   8.5485   9.1315  11.1789  15.5491

          k = 0.6667-0.3333 0.6667 (   928 PWs)   bands (ev):

    -0.3115   2.0256   7.8839   9.3066  11.2871  15.5923

          k = 0.5833-0.2500 0.5833 (   932 PWs)   bands (ev):

     0.0799   1.5540   7.4055   9.7022  11.6954  15.1389

          k = 0.5000-0.1667 0.5000 (   922 PWs)   bands (ev):

    -1.1414   3.1836   7.1476  10.2994  12.3731  14.9344

          k = 0.4167-0.0833 0.4167 (   925 PWs)   bands (ev):

    -2.2280   5.1587   7.1250  11.0529  13.2891  15.0052

          k = 0.3333 0.0000 0.3333 (   929 PWs)   bands (ev):

    -3.0683   7.3207   7.3632  11.8294  14.3746  15.3033

          k = 0.0000 0.5000 0.0000 (   950 PWs)   bands (ev):

    -2.8881   8.7749   8.8841   8.8841  10.3579  11.6068

          k =-0.0833 0.5833-0.0833 (   926 PWs)   bands (ev):

    -2.2225   6.9774   8.0032   8.5258  10.4037  11.7406

          k =-0.1667 0.6667-0.1667 (   928 PWs)   bands (ev):

    -1.2999   4.9698   6.9682   8.4010  10.2679  13.3162

          k = 0.7500-0.2500 0.7500 (   932 PWs)   bands (ev):

    -0.1440   3.1210   6.1285   8.5110  10.3556  15.2080

          k = 0.6667-0.1667 0.6667 (   940 PWs)   bands (ev):

     0.8703   1.8759   5.5177   8.8525  10.7164  17.0014

          k = 0.5833-0.0833 0.5833 (   928 PWs)   bands (ev):

    -0.1551   3.1490   5.1498   9.4162  11.3411  16.6448

          k = 0.5000 0.0000 0.5000 (   919 PWs)   bands (ev):

    -1.3079   4.9762   5.0799  10.1774  12.2122  16.3292

          k = 0.0000 0.6667 0.0000 (   922 PWs)   bands (ev):

    -1.6464   6.4255   8.0907   8.0907   9.4828  10.3397

          k =-0.0833 0.7500-0.0833 (   930 PWs)   bands (ev):

    -0.8119   5.2278   6.6262   7.8897   9.6101  10.9974

          k = 0.8333-0.1667 0.8333 (   932 PWs)   bands (ev):

     0.2665   4.0491   4.9681   7.9255   9.6761  12.8388

          k = 0.7500-0.0833 0.7500 (   938 PWs)   bands (ev):

     1.4747   2.7616   3.9475   8.1970   9.9743  14.9550

          k = 0.6667 0.0000 0.6667 (   935 PWs)   bands (ev):

     1.0295   3.2761   3.4956   8.6989  10.5320  17.1234

          k = 0.0000 0.8333 0.0000 (   942 PWs)   bands (ev):

    -0.0664   4.0290   7.6111   7.6111   8.9527   9.6994

          k = 0.9167-0.0833 0.9167 (   940 PWs)   bands (ev):

     0.9266   2.9745   6.2277   7.5699   9.2320  10.6424

          k = 0.8333 0.0000 0.8333 (   944 PWs)   bands (ev):

     2.0212   2.2501   4.5464   7.7662   9.4862  12.6784

          k = 0.0000-1.0000 0.0000 (   934 PWs)   bands (ev):

     1.7668   1.9073   7.4508   7.4508   8.7754   9.4979

          k =-0.1667 0.3333 0.0000 (   927 PWs)   bands (ev):

    -3.6026   8.7442   8.7715  11.5721  13.0592  14.3345

          k =-0.2500 0.4167-0.0833 (   932 PWs)   bands (ev):

    -2.9348   6.4841   8.3773  10.9245  13.1095  14.5685

          k =-0.3333 0.5000-0.1667 (   924 PWs)   bands (ev):

    -2.0089   4.3607   8.2206  10.1293  12.8335  14.5584

          k = 0.5833-0.4167 0.7500 (   927 PWs)   bands (ev):

    -0.8490   2.4703   8.2606   9.4637  12.7929  13.9356

          k = 0.5000-0.3333 0.6667 (   930 PWs)   bands (ev):

     0.1708   1.2053   8.3505   9.1582  12.8536  13.6368

          k =-0.1667 0.5000 0.0000 (   932 PWs)   bands (ev):

    -2.7112   7.5589   7.6262   9.5333  11.9318  12.5553

          k =-0.2500 0.5833-0.0833 (   927 PWs)   bands (ev):

    -1.8723   5.4620   7.3137   8.6003  11.9566  13.7276

          k = 0.6667-0.3333 0.8333 (   927 PWs)   bands (ev):

    -0.7876   3.5075   7.0875   7.9678  11.9599  15.1895

          k = 0.5833-0.2500 0.7500 (   934 PWs)   bands (ev):

     0.4323   1.8873   6.6737   7.9772  12.2053  15.0253

          k = 0.5000-0.1667 0.6667 (   933 PWs)   bands (ev):

     0.0351   2.3676   6.2991   8.4212  12.6780  14.6842

          k = 0.4167-0.0833 0.5833 (   926 PWs)   bands (ev):

    -1.1775   4.1453   6.1243   9.1342  13.3228  14.5757

          k = 0.3333 0.0000 0.5000 (   922 PWs)   bands (ev):

    -2.1825   6.1538   6.2115  10.0423  13.9382  14.3390

          k =-0.1667 0.6667-0.0000 (   926 PWs)   bands (ev):

    -1.4724   6.2579   6.7963   7.4693  11.1008  11.5584

          k = 0.7500-0.2500 0.9167 (   930 PWs)   bands (ev):

    -0.4708   4.6734   5.8036   7.0225  11.2549  13.1113

          k = 0.6667-0.1667 0.8333 (   929 PWs)   bands (ev):

     0.7375   2.9886   5.0234   7.1437  11.4540  15.0881

          k = 0.5833-0.0833 0.7500 (   931 PWs)   bands (ev):

     1.1089   2.5621   4.4815   7.5647  11.8900  16.4203

          k = 0.5000 0.0000 0.6667 (   929 PWs)   bands (ev):

    -0.1031   4.1278   4.2429   8.2390  12.5484  16.3281

          k = 0.8333-0.1667 1.0000 (   931 PWs)   bands (ev):

     0.1022   4.1465   6.2951   6.6300  10.5959  11.0150

          k = 0.7500-0.0833 0.9167 (   935 PWs)   bands (ev):

     1.2452   3.2209   4.6966   6.5911  10.9110  12.7961

          k = 0.6667 0.0000 0.8333 (   928 PWs)   bands (ev):

     2.0885   2.7635   3.4524   6.9495  11.2859  14.9782

          k =-0.1667-1.0000 0.0000 (   940 PWs)   bands (ev):

     1.9102   2.0787   6.1276   6.4206  10.4268  10.8383

          k = 0.6667-0.3333 1.0000 (   926 PWs)   bands (ev):

    -0.9537   5.2996   5.3112   7.5542  13.5475  13.5719

          k = 0.5833-0.2500 0.9167 (   923 PWs)   bands (ev):

     0.1972   3.4618   5.3524   6.7585  13.5784  14.7251

          k = 0.5000-0.1667 0.8333 (   936 PWs)   bands (ev):

     1.2159   2.2077   5.4458   6.4140  13.6401  14.6045

          k = 0.6667-0.1667 1.0000 (   929 PWs)   bands (ev):

     0.5997   4.2727   4.8033   5.6284  13.0617  13.1893

          k = 0.5833-0.0833 0.9167 (   926 PWs)   bands (ev):

     1.7995   3.1040   4.1275   5.4605  13.3740  15.1158

          k = 0.5000 0.0000 0.8333 (   924 PWs)   bands (ev):

     1.3786   3.6168   3.7187   5.9345  13.7910  15.9589

          k =-0.3333-1.0000 0.0000 (   938 PWs)   bands (ev):

     2.2883   2.5924   4.6336   5.1443  12.8983  13.0493

          k =-0.5000-1.0000 0.0000 (   932 PWs)   bands (ev):

     2.5767   3.4462   3.4462   4.5402  14.7958  15.6886

     the Fermi energy is     3.6007 ev

!    total energy              =     -12.41955845 Ry
     estimated scf accuracy    <          1.6E-09 Ry
     smearing contrib. (-TS)   =       0.00010169 Ry
     internal energy E=F+TS    =     -12.41966014 Ry

     The total energy is F=E-TS. E is the sum of the following terms:
     one-electron contribution =       1.95914142 Ry
     hartree contribution      =       0.02510505 Ry
     xc contribution           =      -9.81904454 Ry
     ewald contribution        =      -4.58486207 Ry

     convergence has been achieved in   5 iterations

     Forces acting on atoms (cartesian axes, Ry/au):

     atom    1 type  1   force =     0.00000000    0.00000000    0.00000000

     Total force =     0.000000     Total SCF correction =     0.000000


     Computing stress (Cartesian axis) and pressure

          total   stress  (Ry/bohr**3)                   (kbar)     P=     -116.19
  -0.00078988  -0.00000000   0.00000000         -116.19       -0.00        0.00
   0.00000000  -0.00078988   0.00000000            0.00     -116.19        0.00
   0.00000000   0.00000000  -0.00078988            0.00        0.00     -116.19


     Writing all to output data dir /Users/zhy/Aluminum-from-First-Principles/convergence-runs/cutoff-kmesh/ecut-045.0-ry_k-12x12x12_degauss-0.050-ry/qe-out/aluminum_ecut-045p0-ry_k-12x12x12_degauss-0p050-ry.save/ :
     XML data file, charge density, pseudopotentials, collected wavefunctions

     init_run     :      0.32s CPU      0.32s WALL (       1 calls)
     electrons    :      1.28s CPU      1.31s WALL (       1 calls)
     forces       :      0.01s CPU      0.01s WALL (       1 calls)
     stress       :      0.05s CPU      0.05s WALL (       1 calls)

     Called by init_run:
     wfcinit      :      0.06s CPU      0.06s WALL (       1 calls)
     potinit      :      0.06s CPU      0.06s WALL (       1 calls)
     hinit0       :      0.16s CPU      0.16s WALL (       1 calls)

     Called by electrons:
     c_bands      :      1.04s CPU      1.07s WALL (       6 calls)
     sum_band     :      0.20s CPU      0.20s WALL (       6 calls)
     v_of_rho     :      0.04s CPU      0.04s WALL (       6 calls)
     newd         :      0.01s CPU      0.01s WALL (       6 calls)
     mix_rho      :      0.00s CPU      0.00s WALL (       6 calls)

     Called by c_bands:
     init_us_2    :      0.03s CPU      0.03s WALL (    1080 calls)
     cegterg      :      1.02s CPU      1.05s WALL (     432 calls)

     Called by *egterg:
     cdiaghg      :      0.04s CPU      0.04s WALL (    1655 calls)
     h_psi        :      0.96s CPU      0.98s WALL (    1799 calls)
     s_psi        :      0.01s CPU      0.01s WALL (    1799 calls)
     g_psi        :      0.00s CPU      0.00s WALL (    1295 calls)

     Called by h_psi:
     h_psi:calbec :      0.01s CPU      0.01s WALL (    1799 calls)
     vloc_psi     :      0.94s CPU      0.96s WALL (    1799 calls)
     add_vuspsi   :      0.01s CPU      0.01s WALL (    1799 calls)

     General routines
     calbec       :      0.02s CPU      0.02s WALL (    3455 calls)
     fft          :      0.15s CPU      0.15s WALL (     102 calls)
     ffts         :      0.05s CPU      0.05s WALL (      12 calls)
     fftw         :      1.01s CPU      1.03s WALL (   17386 calls)
     interpolate  :      0.05s CPU      0.05s WALL (       6 calls)

     Parallel routines

     PWSCF        :      1.68s CPU      1.74s WALL


   This run was terminated on:   1:12:50  23Sep2026            

=------------------------------------------------------------------------------=
   JOB DONE.
=------------------------------------------------------------------------------=
Note: The following floating-point exceptions are signalling: IEEE_UNDERFLOW_FLAG
Note: The following floating-point exceptions are signalling: IEEE_INVALID_FLAG IEEE_DIVIDE_BY_ZERO IEEE_UNDERFLOW_FLAG
