
     Program PWSCF v.7.6 starts on 23Sep2026 at  1:27:49 

     This program is part of the open-source Quantum ESPRESSO suite
     for quantum simulation of materials; please cite
         "P. Giannozzi et al., J. Phys.:Condens. Matter 21 395502 (2009);
         "P. Giannozzi et al., J. Phys.:Condens. Matter 29 465901 (2017);
         "P. Giannozzi et al., J. Chem. Phys. 152 154105 (2020);
          URL http://www.quantum-espresso.org", 
     in publications or presentations arising from this work. More details at
     http://www.quantum-espresso.org/quote

     Parallel version (MPI), running on     2 processors

     MPI processes distributed on     1 nodes
     0 MiB available memory on the printing compute node when the environment starts

     Reading input from Al.scf.inp

     Current dimensions of program PWSCF are:
     Max number of different atomic species (ntypx) = 10
     Max number of k-points (npk) =  40000
     Max angular momentum in pseudopotentials (lmaxx) =  4

     R & G space division:  proc/nbgrp/npool/nimage =       2
     Subspace diagonalization in iterative solution of the eigenvalue problem:
     a serial algorithm will be used


     Parallelization info
     --------------------
     sticks:   dense  smooth     PW     G-vecs:    dense   smooth      PW
     Min         384     189     60                 7164     2513     469
     Max         385     190     61                 7167     2516     472
     Sum         769     379    121                14331     5029     941

     Using Slab Decomposition



     bravais-lattice index     =            2
     lattice parameter (alat)  =       9.0000  a.u.
     unit-cell volume          =     182.2500 (a.u.)^3
     number of atoms/cell      =            1
     number of atomic types    =            1
     number of electrons       =         3.00
     number of Kohn-Sham states=            6
     kinetic-energy cutoff     =      35.0000  Ry
     charge density cutoff     =     280.0000  Ry
     scf convergence threshold =      1.0E-08
     mixing beta               =       0.7000
     number of iterations used =            8  plain     mixing
     Exchange-correlation= SLA  PW   PBE  PBE
                           (   1   4   3   4   0   0   0)

     celldm(1)=   9.000000  celldm(2)=   0.000000  celldm(3)=   0.000000
     celldm(4)=   0.000000  celldm(5)=   0.000000  celldm(6)=   0.000000

     crystal axes: (cart. coord. in units of alat)
               a(1) = (  -0.500000   0.000000   0.500000 )  
               a(2) = (   0.000000   0.500000   0.500000 )  
               a(3) = (  -0.500000   0.500000   0.000000 )  

     reciprocal axes: (cart. coord. in units 2 pi/alat)
               b(1) = ( -1.000000 -1.000000  1.000000 )  
               b(2) = (  1.000000  1.000000  1.000000 )  
               b(3) = ( -1.000000  1.000000 -1.000000 )  


     PseudoPot. # 1 for Al read from file:
     /Users/zhy/Aluminum-from-First-Principles/Al.pbe-n-van.UPF
     MD5 check sum: cbc97ad259b400557db688b98a6ada97
     Pseudo is Ultrasoft + core correction, Zval =  3.0
     Generated by new atomic code, or converted to UPF format
     Using radial grid of  893 points,  2 beta functions with: 
                l(1) =   0
                l(2) =   1
     Q(r) pseudized with  8 coefficients,  rinner =    0.900   0.900   0.900


     atomic species   valence    mass     pseudopotential
     Al                3.00    26.98200     Al( 1.00)

     48 Sym. Ops., with inversion, found



   Cartesian axes

     site n.     atom                  positions (alat units)
         1        Al     tau(   1) = (   0.0000000   0.0000000   0.0000000  )

     number of k points=    47  Methfessel-Paxton smearing, width (Ry)=  0.0500
                       cart. coord. in units 2pi/alat
        k(    1) = (   0.0000000   0.0000000   0.0000000), wk =   0.0020000
        k(    2) = (  -0.1000000   0.1000000  -0.1000000), wk =   0.0160000
        k(    3) = (  -0.2000000   0.2000000  -0.2000000), wk =   0.0160000
        k(    4) = (  -0.3000000   0.3000000  -0.3000000), wk =   0.0160000
        k(    5) = (  -0.4000000   0.4000000  -0.4000000), wk =   0.0160000
        k(    6) = (   0.5000000  -0.5000000   0.5000000), wk =   0.0080000
        k(    7) = (   0.0000000   0.2000000   0.0000000), wk =   0.0120000
        k(    8) = (  -0.1000000   0.3000000  -0.1000000), wk =   0.0480000
        k(    9) = (  -0.2000000   0.4000000  -0.2000000), wk =   0.0480000
        k(   10) = (  -0.3000000   0.5000000  -0.3000000), wk =   0.0480000
        k(   11) = (   0.6000000  -0.4000000   0.6000000), wk =   0.0480000
        k(   12) = (   0.5000000  -0.3000000   0.5000000), wk =   0.0480000
        k(   13) = (   0.4000000  -0.2000000   0.4000000), wk =   0.0480000
        k(   14) = (   0.3000000  -0.1000000   0.3000000), wk =   0.0480000
        k(   15) = (   0.2000000   0.0000000   0.2000000), wk =   0.0240000
        k(   16) = (   0.0000000   0.4000000   0.0000000), wk =   0.0120000
        k(   17) = (  -0.1000000   0.5000000  -0.1000000), wk =   0.0480000
        k(   18) = (  -0.2000000   0.6000000  -0.2000000), wk =   0.0480000
        k(   19) = (   0.7000000  -0.3000000   0.7000000), wk =   0.0480000
        k(   20) = (   0.6000000  -0.2000000   0.6000000), wk =   0.0480000
        k(   21) = (   0.5000000  -0.1000000   0.5000000), wk =   0.0480000
        k(   22) = (   0.4000000   0.0000000   0.4000000), wk =   0.0240000
        k(   23) = (   0.0000000   0.6000000   0.0000000), wk =   0.0120000
        k(   24) = (  -0.1000000   0.7000000  -0.1000000), wk =   0.0480000
        k(   25) = (   0.8000000  -0.2000000   0.8000000), wk =   0.0480000
        k(   26) = (   0.7000000  -0.1000000   0.7000000), wk =   0.0480000
        k(   27) = (   0.6000000   0.0000000   0.6000000), wk =   0.0240000
        k(   28) = (   0.0000000   0.8000000   0.0000000), wk =   0.0120000
        k(   29) = (   0.9000000  -0.1000000   0.9000000), wk =   0.0480000
        k(   30) = (   0.8000000   0.0000000   0.8000000), wk =   0.0240000
        k(   31) = (   0.0000000  -1.0000000   0.0000000), wk =   0.0060000
        k(   32) = (  -0.2000000   0.4000000   0.0000000), wk =   0.0480000
        k(   33) = (  -0.3000000   0.5000000  -0.1000000), wk =   0.0960000
        k(   34) = (   0.6000000  -0.4000000   0.8000000), wk =   0.0960000
        k(   35) = (   0.5000000  -0.3000000   0.7000000), wk =   0.0480000
        k(   36) = (  -0.2000000   0.6000000   0.0000000), wk =   0.0480000
        k(   37) = (   0.7000000  -0.3000000   0.9000000), wk =   0.0960000
        k(   38) = (   0.6000000  -0.2000000   0.8000000), wk =   0.0960000
        k(   39) = (   0.5000000  -0.1000000   0.7000000), wk =   0.0960000
        k(   40) = (   0.4000000   0.0000000   0.6000000), wk =   0.0480000
        k(   41) = (   0.8000000  -0.2000000   1.0000000), wk =   0.0480000
        k(   42) = (   0.7000000  -0.1000000   0.9000000), wk =   0.0960000
        k(   43) = (   0.6000000   0.0000000   0.8000000), wk =   0.0480000
        k(   44) = (  -0.2000000  -1.0000000   0.0000000), wk =   0.0240000
        k(   45) = (   0.6000000  -0.2000000   1.0000000), wk =   0.0480000
        k(   46) = (   0.5000000  -0.1000000   0.9000000), wk =   0.0480000
        k(   47) = (  -0.4000000  -1.0000000   0.0000000), wk =   0.0240000

     Dense  grid:    14331 G-vectors     FFT dimensions: (  36,  36,  36)

     Smooth grid:     5029 G-vectors     FFT dimensions: (  24,  24,  24)

     Estimated max dynamical RAM per process >       8.70 MB

     Estimated total dynamical RAM >      17.40 MB

     Initial potential from superposition of free atoms

     starting charge       2.9975, renormalised to       3.0000
     Starting wfcs are    4 randomized atomic wfcs +    2 random wfcs

     total cpu time spent up to now is        0.3 secs

     Self-consistent Calculation

     iteration #  1     ecut=    35.00 Ry     beta= 0.70
     Davidson diagonalization with overlap
     ethr =  1.00E-02,  avg # of iterations =  5.4

     Threshold (ethr) on eigenvalues was too large:
     Diagonalizing with lowered threshold

     Davidson diagonalization with overlap
     ethr =  1.76E-04,  avg # of iterations =  3.2

     total cpu time spent up to now is        0.6 secs

     total energy              =     -12.41958169 Ry
     estimated scf accuracy    <       0.00512096 Ry

     iteration #  2     ecut=    35.00 Ry     beta= 0.70
     Davidson diagonalization with overlap
     ethr =  1.71E-04,  avg # of iterations =  1.1

     total cpu time spent up to now is        0.6 secs

     total energy              =     -12.41970615 Ry
     estimated scf accuracy    <       0.00024052 Ry

     iteration #  3     ecut=    35.00 Ry     beta= 0.70
     Davidson diagonalization with overlap
     ethr =  8.02E-06,  avg # of iterations =  3.6

     total cpu time spent up to now is        0.7 secs

     total energy              =     -12.41974027 Ry
     estimated scf accuracy    <       0.00000107 Ry

     iteration #  4     ecut=    35.00 Ry     beta= 0.70
     Davidson diagonalization with overlap
     ethr =  3.58E-08,  avg # of iterations =  3.1

     total cpu time spent up to now is        0.8 secs

     total energy              =     -12.41974162 Ry
     estimated scf accuracy    <       0.00000006 Ry

     iteration #  5     ecut=    35.00 Ry     beta= 0.70
     Davidson diagonalization with overlap
     ethr =  2.04E-09,  avg # of iterations =  1.3

     total cpu time spent up to now is        0.9 secs

     End of self-consistent calculation

          k = 0.0000 0.0000 0.0000 (   609 PWs)   bands (ev):

    -4.4982  12.4192  12.4192  12.4192  13.9216  13.9216

          k =-0.1000 0.1000-0.1000 (   624 PWs)   bands (ev):

    -4.3041  10.3899  11.9522  11.9522  14.2050  14.5964

          k =-0.2000 0.2000-0.2000 (   628 PWs)   bands (ev):

    -3.7237   7.5439  11.3633  11.3633  13.9407  15.0940

          k =-0.3000 0.3000-0.3000 (   619 PWs)   bands (ev):

    -2.7641   4.8612  10.9995  10.9995  13.6971  14.2439

          k =-0.4000 0.4000-0.4000 (   628 PWs)   bands (ev):

    -1.4486   2.4885  10.8540  10.8540  13.4480  13.4481

          k = 0.5000-0.5000 0.5000 (   628 PWs)   bands (ev):

    -0.1818   0.8666  10.8303  10.8303  13.1449  13.6232

          k = 0.0000 0.2000 0.0000 (   625 PWs)   bands (ev):

    -4.2394  11.0444  11.0444  11.6633  12.6858  15.6141

          k =-0.1000 0.3000-0.1000 (   631 PWs)   bands (ev):

    -3.7877   8.6172  10.3322  11.2230  12.9940  14.7598

          k =-0.2000 0.4000-0.2000 (   628 PWs)   bands (ev):

    -2.9540   5.8792   9.9226  10.5850  12.6567  15.0384

          k =-0.3000 0.5000-0.3000 (   630 PWs)   bands (ev):

    -1.7528   3.3992   9.8323   9.9474  12.1417  15.0035

          k = 0.6000-0.4000 0.6000 (   629 PWs)   bands (ev):

    -0.2903   1.3478   9.3533  10.0516  12.1852  14.2607

          k = 0.5000-0.3000 0.5000 (   633 PWs)   bands (ev):

    -0.7798   1.9556   8.9505  10.5446  12.7166  13.8900

          k = 0.4000-0.2000 0.4000 (   628 PWs)   bands (ev):

    -2.1925   4.1913   8.8332  11.2278  13.6329  13.9724

          k = 0.3000-0.1000 0.3000 (   630 PWs)   bands (ev):

    -3.2740   6.7736   9.0366  11.9517  14.5111  14.6946

          k = 0.2000 0.0000 0.2000 (   626 PWs)   bands (ev):

    -3.9812   9.5432   9.5902  12.4354  14.4224  14.6556

          k = 0.0000 0.4000 0.0000 (   641 PWs)   bands (ev):

    -3.4654   9.5083   9.5083   9.9547  11.0426  12.8312

          k =-0.1000 0.5000-0.1000 (   626 PWs)   bands (ev):

    -2.7599   7.1824   8.9959   9.1345  11.0927  12.6230

          k =-0.2000 0.6000-0.2000 (   623 PWs)   bands (ev):

    -1.6811   4.6535   8.0659   8.8154  10.7985  14.4212

          k = 0.7000-0.3000 0.7000 (   632 PWs)   bands (ev):

    -0.2715   2.4373   7.1634   8.9690  10.8884  16.3065

          k = 0.6000-0.2000 0.6000 (   643 PWs)   bands (ev):

     0.2128   1.8393   6.5516   9.4480  11.3924  15.7788

          k = 0.5000-0.1000 0.5000 (   634 PWs)   bands (ev):

    -1.2468   3.8846   6.2754  10.2258  12.2741  15.5565

          k = 0.4000 0.0000 0.4000 (   630 PWs)   bands (ev):

    -2.4436   6.3114   6.3837  11.2126  13.4812  15.6070

          k = 0.0000 0.6000 0.0000 (   636 PWs)   bands (ev):

    -2.1835   7.3991   8.3733   8.3733   9.7948  10.7535

          k =-0.1000 0.7000-0.1000 (   638 PWs)   bands (ev):

    -1.2315   5.8029   6.6526   8.0844   9.8632  11.5536

          k = 0.8000-0.2000 0.8000 (   644 PWs)   bands (ev):

     0.0734   3.8290   5.2317   8.1354   9.9200  13.7894

          k = 0.7000-0.1000 0.7000 (   647 PWs)   bands (ev):

     1.3227   2.3033   4.3942   8.5237  10.3403  16.2979

          k = 0.6000 0.0000 0.6000 (   648 PWs)   bands (ev):

     0.0487   3.8776   4.0217   9.2362  11.1345  17.4124

          k = 0.0000 0.8000 0.0000 (   628 PWs)   bands (ev):

    -0.4077   4.4982   7.6842   7.6842   9.0333   9.7923

          k = 0.9000-0.1000 0.9000 (   644 PWs)   bands (ev):

     0.7759   3.2232   5.9167   7.6245   9.3096  11.0526

          k = 0.8000 0.0000 0.8000 (   640 PWs)   bands (ev):

     2.0873   2.4019   3.9752   7.9068   9.6459  13.5699

          k = 0.0000-1.0000 0.0000 (   636 PWs)   bands (ev):

     1.7682   1.9084   7.4532   7.4532   8.7779   9.5006

          k =-0.2000 0.4000 0.0000 (   634 PWs)   bands (ev):

    -3.2092   7.9632   7.9694  11.0014  13.0244  13.7618

          k =-0.3000 0.5000-0.1000 (   632 PWs)   bands (ev):

    -2.2524   5.3296   7.6435   9.9715  12.9483  14.6622

          k = 0.6000-0.4000 0.8000 (   639 PWs)   bands (ev):

    -0.9406   2.9744   7.6282   9.0418  12.8639  14.1885

          k = 0.5000-0.3000 0.7000 (   640 PWs)   bands (ev):

     0.3270   1.3551   7.7382   8.6049  12.9425  13.7885

          k =-0.2000 0.6000 0.0000 (   638 PWs)   bands (ev):

    -1.9311   6.6333   6.7756   8.2149  11.8542  12.2709

          k = 0.7000-0.3000 0.9000 (   646 PWs)   bands (ev):

    -0.7372   4.3258   6.3579   7.2769  11.9628  14.1345

          k = 0.6000-0.2000 0.8000 (   644 PWs)   bands (ev):

     0.7191   2.3107   5.7699   7.2573  12.2274  15.5255

          k = 0.5000-0.1000 0.7000 (   643 PWs)   bands (ev):

     0.2232   2.9284   5.2944   7.8332  12.8154  15.2102

          k = 0.4000 0.0000 0.6000 (   640 PWs)   bands (ev):

    -1.1794   5.0987   5.1729   8.7845  13.6140  14.8951

          k = 0.8000-0.2000 1.0000 (   642 PWs)   bands (ev):

    -0.1633   4.6256   6.0522   6.4873  11.1347  11.5048

          k = 0.7000-0.1000 0.9000 (   644 PWs)   bands (ev):

     1.2307   3.4108   4.3177   6.4318  11.4806  13.7266

          k = 0.6000 0.0000 0.8000 (   647 PWs)   bands (ev):

     1.6269   3.1408   3.4268   6.9463  12.0005  16.2431

          k =-0.2000-1.0000 0.0000 (   640 PWs)   bands (ev):

     1.9726   2.1553   5.8101   6.1437  10.8928  11.2572

          k = 0.6000-0.2000 1.0000 (   647 PWs)   bands (ev):

     0.5550   4.2830   4.3658   5.9733  14.0252  14.2147

          k = 0.5000-0.1000 0.9000 (   640 PWs)   bands (ev):

     1.8089   2.7699   4.4480   5.4501  14.1515  15.1263

          k =-0.4000-1.0000 0.0000 (   646 PWs)   bands (ev):

     2.4539   2.8946   4.1210   4.7804  13.9538  13.9841

     the Fermi energy is     3.6488 ev

!    total energy              =     -12.41974162 Ry
     estimated scf accuracy    <          1.6E-09 Ry
     smearing contrib. (-TS)   =       0.00097487 Ry
     internal energy E=F+TS    =     -12.42071649 Ry

     The total energy is F=E-TS. E is the sum of the following terms:
     one-electron contribution =       1.95814249 Ry
     hartree contribution      =       0.02528579 Ry
     xc contribution           =      -9.81928270 Ry
     ewald contribution        =      -4.58486207 Ry

     convergence has been achieved in   5 iterations

     Forces acting on atoms (cartesian axes, Ry/au):

     atom    1 type  1   force =     0.00000000    0.00000000    0.00000000

     Total force =     0.000000     Total SCF correction =     0.000000


     Computing stress (Cartesian axis) and pressure

          total   stress  (Ry/bohr**3)                   (kbar)     P=     -115.75
  -0.00078688   0.00000000  -0.00000000         -115.75        0.00       -0.00
   0.00000000  -0.00078688   0.00000000            0.00     -115.75        0.00
  -0.00000000   0.00000000  -0.00078688           -0.00        0.00     -115.75


     Writing all to output data dir /Users/zhy/Aluminum-from-First-Principles/convergence-runs/smearing/ecut-035.0-ry_k-10x10x10_degauss-0.050-ry/qe-out/aluminum_ecut-035p0-ry_k-10x10x10_degauss-0p050-ry.save/ :
     XML data file, charge density, pseudopotentials, collected wavefunctions

     init_run     :      0.31s CPU      0.32s WALL (       1 calls)
     electrons    :      0.54s CPU      0.57s WALL (       1 calls)
     forces       :      0.01s CPU      0.01s WALL (       1 calls)
     stress       :      0.03s CPU      0.03s WALL (       1 calls)

     Called by init_run:
     wfcinit      :      0.03s CPU      0.03s WALL (       1 calls)
     potinit      :      0.10s CPU      0.10s WALL (       1 calls)
     hinit0       :      0.17s CPU      0.17s WALL (       1 calls)

     Called by electrons:
     c_bands      :      0.43s CPU      0.45s WALL (       6 calls)
     sum_band     :      0.08s CPU      0.09s WALL (       6 calls)
     v_of_rho     :      0.03s CPU      0.03s WALL (       6 calls)
     newd         :      0.01s CPU      0.01s WALL (       6 calls)
     mix_rho      :      0.00s CPU      0.00s WALL (       6 calls)

     Called by c_bands:
     init_us_2    :      0.01s CPU      0.01s WALL (     705 calls)
     cegterg      :      0.42s CPU      0.44s WALL (     282 calls)

     Called by *egterg:
     cdiaghg      :      0.02s CPU      0.02s WALL (    1068 calls)
     h_psi        :      0.38s CPU      0.39s WALL (    1162 calls)
     s_psi        :      0.00s CPU      0.00s WALL (    1162 calls)
     g_psi        :      0.00s CPU      0.00s WALL (     833 calls)

     Called by h_psi:
     h_psi:calbec :      0.00s CPU      0.01s WALL (    1162 calls)
     vloc_psi     :      0.37s CPU      0.38s WALL (    1162 calls)
     add_vuspsi   :      0.00s CPU      0.00s WALL (    1162 calls)

     General routines
     calbec       :      0.01s CPU      0.01s WALL (    2243 calls)
     fft          :      0.15s CPU      0.16s WALL (     102 calls)
     ffts         :      0.10s CPU      0.10s WALL (      12 calls)
     fftw         :      0.39s CPU      0.40s WALL (   11274 calls)
     interpolate  :      0.10s CPU      0.10s WALL (       6 calls)

     Parallel routines

     PWSCF        :      0.91s CPU      0.95s WALL


   This run was terminated on:   1:27:50  23Sep2026            

=------------------------------------------------------------------------------=
   JOB DONE.
=------------------------------------------------------------------------------=
Note: The following floating-point exceptions are signalling: IEEE_UNDERFLOW_FLAG
Note: The following floating-point exceptions are signalling: IEEE_INVALID_FLAG IEEE_DIVIDE_BY_ZERO IEEE_UNDERFLOW_FLAG
