
     Program PWSCF v.7.6 starts on 23Sep2026 at  1:12:45 

     This program is part of the open-source Quantum ESPRESSO suite
     for quantum simulation of materials; please cite
         "P. Giannozzi et al., J. Phys.:Condens. Matter 21 395502 (2009);
         "P. Giannozzi et al., J. Phys.:Condens. Matter 29 465901 (2017);
         "P. Giannozzi et al., J. Chem. Phys. 152 154105 (2020);
          URL http://www.quantum-espresso.org", 
     in publications or presentations arising from this work. More details at
     http://www.quantum-espresso.org/quote

     Parallel version (MPI), running on     2 processors

     MPI processes distributed on     1 nodes
     0 MiB available memory on the printing compute node when the environment starts

     Reading input from Al.scf.inp

     Current dimensions of program PWSCF are:
     Max number of different atomic species (ntypx) = 10
     Max number of k-points (npk) =  40000
     Max angular momentum in pseudopotentials (lmaxx) =  4

     R & G space division:  proc/nbgrp/npool/nimage =       2
     Subspace diagonalization in iterative solution of the eigenvalue problem:
     a serial algorithm will be used


     Parallelization info
     --------------------
     sticks:   dense  smooth     PW     G-vecs:    dense   smooth      PW
     Min         501     249     81                10436     3694     681
     Max         502     250     82                10439     3697     682
     Sum        1003     499    163                20875     7391    1363

     Using Slab Decomposition



     bravais-lattice index     =            2
     lattice parameter (alat)  =       9.0000  a.u.
     unit-cell volume          =     182.2500 (a.u.)^3
     number of atoms/cell      =            1
     number of atomic types    =            1
     number of electrons       =         3.00
     number of Kohn-Sham states=            6
     kinetic-energy cutoff     =      45.0000  Ry
     charge density cutoff     =     360.0000  Ry
     scf convergence threshold =      1.0E-08
     mixing beta               =       0.7000
     number of iterations used =            8  plain     mixing
     Exchange-correlation= SLA  PW   PBE  PBE
                           (   1   4   3   4   0   0   0)

     celldm(1)=   9.000000  celldm(2)=   0.000000  celldm(3)=   0.000000
     celldm(4)=   0.000000  celldm(5)=   0.000000  celldm(6)=   0.000000

     crystal axes: (cart. coord. in units of alat)
               a(1) = (  -0.500000   0.000000   0.500000 )  
               a(2) = (   0.000000   0.500000   0.500000 )  
               a(3) = (  -0.500000   0.500000   0.000000 )  

     reciprocal axes: (cart. coord. in units 2 pi/alat)
               b(1) = ( -1.000000 -1.000000  1.000000 )  
               b(2) = (  1.000000  1.000000  1.000000 )  
               b(3) = ( -1.000000  1.000000 -1.000000 )  


     PseudoPot. # 1 for Al read from file:
     /Users/zhy/Aluminum-from-First-Principles/Al.pbe-n-van.UPF
     MD5 check sum: cbc97ad259b400557db688b98a6ada97
     Pseudo is Ultrasoft + core correction, Zval =  3.0
     Generated by new atomic code, or converted to UPF format
     Using radial grid of  893 points,  2 beta functions with: 
                l(1) =   0
                l(2) =   1
     Q(r) pseudized with  8 coefficients,  rinner =    0.900   0.900   0.900


     atomic species   valence    mass     pseudopotential
     Al                3.00    26.98200     Al( 1.00)

     48 Sym. Ops., with inversion, found



   Cartesian axes

     site n.     atom                  positions (alat units)
         1        Al     tau(   1) = (   0.0000000   0.0000000   0.0000000  )

     number of k points=    16  Methfessel-Paxton smearing, width (Ry)=  0.0500
                       cart. coord. in units 2pi/alat
        k(    1) = (   0.0000000   0.0000000   0.0000000), wk =   0.0092593
        k(    2) = (  -0.1666667   0.1666667  -0.1666667), wk =   0.0740741
        k(    3) = (  -0.3333333   0.3333333  -0.3333333), wk =   0.0740741
        k(    4) = (   0.5000000  -0.5000000   0.5000000), wk =   0.0370370
        k(    5) = (   0.0000000   0.3333333   0.0000000), wk =   0.0555556
        k(    6) = (  -0.1666667   0.5000000  -0.1666667), wk =   0.2222222
        k(    7) = (   0.6666667  -0.3333333   0.6666667), wk =   0.2222222
        k(    8) = (   0.5000000  -0.1666667   0.5000000), wk =   0.2222222
        k(    9) = (   0.3333333   0.0000000   0.3333333), wk =   0.1111111
        k(   10) = (   0.0000000   0.6666667   0.0000000), wk =   0.0555556
        k(   11) = (   0.8333333  -0.1666667   0.8333333), wk =   0.2222222
        k(   12) = (   0.6666667   0.0000000   0.6666667), wk =   0.1111111
        k(   13) = (   0.0000000  -1.0000000   0.0000000), wk =   0.0277778
        k(   14) = (   0.6666667  -0.3333333   1.0000000), wk =   0.2222222
        k(   15) = (   0.5000000  -0.1666667   0.8333333), wk =   0.2222222
        k(   16) = (  -0.3333333  -1.0000000   0.0000000), wk =   0.1111111

     Dense  grid:    20875 G-vectors     FFT dimensions: (  40,  40,  40)

     Smooth grid:     7391 G-vectors     FFT dimensions: (  27,  27,  27)

     Estimated max dynamical RAM per process >      11.19 MB

     Estimated total dynamical RAM >      22.38 MB

     Initial potential from superposition of free atoms

     starting charge       2.9975, renormalised to       3.0000
     Starting wfcs are    4 randomized atomic wfcs +    2 random wfcs

     total cpu time spent up to now is        0.3 secs

     Self-consistent Calculation

     iteration #  1     ecut=    45.00 Ry     beta= 0.70
     Davidson diagonalization with overlap
     ethr =  1.00E-02,  avg # of iterations =  5.2

     Threshold (ethr) on eigenvalues was too large:
     Diagonalizing with lowered threshold

     Davidson diagonalization with overlap
     ethr =  1.88E-04,  avg # of iterations =  2.6

     total cpu time spent up to now is        0.4 secs

     total energy              =     -12.42255512 Ry
     estimated scf accuracy    <       0.00552375 Ry

     iteration #  2     ecut=    45.00 Ry     beta= 0.70
     Davidson diagonalization with overlap
     ethr =  1.84E-04,  avg # of iterations =  1.0

     total cpu time spent up to now is        0.5 secs

     total energy              =     -12.42269259 Ry
     estimated scf accuracy    <       0.00025553 Ry

     iteration #  3     ecut=    45.00 Ry     beta= 0.70
     Davidson diagonalization with overlap
     ethr =  8.52E-06,  avg # of iterations =  4.3

     total cpu time spent up to now is        0.5 secs

     total energy              =     -12.42272823 Ry
     estimated scf accuracy    <       0.00000103 Ry

     iteration #  4     ecut=    45.00 Ry     beta= 0.70
     Davidson diagonalization with overlap
     ethr =  3.45E-08,  avg # of iterations =  3.6

     total cpu time spent up to now is        0.6 secs

     total energy              =     -12.42272990 Ry
     estimated scf accuracy    <       0.00000005 Ry

     iteration #  5     ecut=    45.00 Ry     beta= 0.70
     Davidson diagonalization with overlap
     ethr =  1.69E-09,  avg # of iterations =  1.2

     total cpu time spent up to now is        0.6 secs

     End of self-consistent calculation

          k = 0.0000 0.0000 0.0000 (   941 PWs)   bands (ev):

    -4.5019  12.4078  12.4078  12.4078  13.9141  13.9141

          k =-0.1667 0.1667-0.1667 (   917 PWs)   bands (ev):

    -3.9636   8.4813  11.5294  11.5295  14.0367  15.1058

          k =-0.3333 0.3333-0.3333 (   926 PWs)   bands (ev):

    -2.3668   4.0260  10.9211  10.9211  13.6429  13.9320

          k = 0.5000-0.5000 0.5000 (   912 PWs)   bands (ev):

    -0.1870   0.8634  10.8210  10.8210  13.1389  13.6110

          k = 0.0000 0.3333 0.0000 (   929 PWs)   bands (ev):

    -3.7841   9.9735   9.9735  10.5984  11.5516  13.8364

          k =-0.1667 0.5000-0.1667 (   937 PWs)   bands (ev):

    -2.5382   5.8504   9.1811   9.3197  11.4001  14.0940

          k = 0.6667-0.3333 0.6667 (   928 PWs)   bands (ev):

    -0.3149   2.0228   7.8799   9.3027  11.2843  15.5893

          k = 0.5000-0.1667 0.5000 (   922 PWs)   bands (ev):

    -1.1447   3.1805   7.1439  10.2950  12.3700  14.9314

          k = 0.3333 0.0000 0.3333 (   929 PWs)   bands (ev):

    -3.0713   7.3178   7.3589  11.8241  14.3710  15.3004

          k = 0.0000 0.6667 0.0000 (   922 PWs)   bands (ev):

    -1.6495   6.4211   8.0871   8.0871   9.4808  10.3362

          k = 0.8333-0.1667 0.8333 (   932 PWs)   bands (ev):

     0.2631   4.0451   4.9655   7.9219   9.6732  12.8350

          k = 0.6667 0.0000 0.6667 (   935 PWs)   bands (ev):

     1.0257   3.2736   3.4922   8.6952  10.5289  17.1190

          k = 0.0000-1.0000 0.0000 (   934 PWs)   bands (ev):

     1.7623   1.9049   7.4473   7.4473   8.7734   9.4939

          k = 0.6667-0.3333 1.0000 (   926 PWs)   bands (ev):

    -0.9569   5.2953   5.3085   7.5510  13.5444  13.5675

          k = 0.5000-0.1667 0.8333 (   936 PWs)   bands (ev):

     1.2117   2.2053   5.4419   6.4113  13.6360  14.6010

          k =-0.3333-1.0000 0.0000 (   938 PWs)   bands (ev):

     2.2833   2.5899   4.6310   5.1414  12.8953  13.0448

     the Fermi energy is     3.5788 ev

!    total energy              =     -12.42272991 Ry
     estimated scf accuracy    <          1.1E-09 Ry
     smearing contrib. (-TS)   =      -0.00030856 Ry
     internal energy E=F+TS    =     -12.42242134 Ry

     The total energy is F=E-TS. E is the sum of the following terms:
     one-electron contribution =       1.95592497 Ry
     hartree contribution      =       0.02438553 Ry
     xc contribution           =      -9.81786977 Ry
     ewald contribution        =      -4.58486207 Ry

     convergence has been achieved in   5 iterations

     Forces acting on atoms (cartesian axes, Ry/au):

     atom    1 type  1   force =     0.00000000    0.00000000    0.00000000

     Total force =     0.000000     Total SCF correction =     0.000000


     Computing stress (Cartesian axis) and pressure

          total   stress  (Ry/bohr**3)                   (kbar)     P=     -121.71
  -0.00082735  -0.00000000   0.00000000         -121.71       -0.00        0.00
  -0.00000000  -0.00082735   0.00000000           -0.00     -121.71        0.00
   0.00000000   0.00000000  -0.00082735            0.00        0.00     -121.71


     Writing all to output data dir /Users/zhy/Aluminum-from-First-Principles/convergence-runs/cutoff-kmesh/ecut-045.0-ry_k-06x06x06_degauss-0.050-ry/qe-out/aluminum_ecut-045p0-ry_k-06x06x06_degauss-0p050-ry.save/ :
     XML data file, charge density, pseudopotentials, collected wavefunctions

     init_run     :      0.27s CPU      0.27s WALL (       1 calls)
     electrons    :      0.32s CPU      0.33s WALL (       1 calls)
     forces       :      0.01s CPU      0.01s WALL (       1 calls)
     stress       :      0.03s CPU      0.03s WALL (       1 calls)

     Called by init_run:
     wfcinit      :      0.01s CPU      0.01s WALL (       1 calls)
     potinit      :      0.06s CPU      0.06s WALL (       1 calls)
     hinit0       :      0.16s CPU      0.16s WALL (       1 calls)

     Called by electrons:
     c_bands      :      0.23s CPU      0.23s WALL (       6 calls)
     sum_band     :      0.05s CPU      0.06s WALL (       6 calls)
     v_of_rho     :      0.04s CPU      0.04s WALL (       6 calls)
     newd         :      0.01s CPU      0.01s WALL (       6 calls)
     mix_rho      :      0.00s CPU      0.00s WALL (       6 calls)

     Called by c_bands:
     init_us_2    :      0.01s CPU      0.01s WALL (     240 calls)
     cegterg      :      0.22s CPU      0.23s WALL (      96 calls)

     Called by *egterg:
     cdiaghg      :      0.01s CPU      0.01s WALL (     366 calls)
     h_psi        :      0.21s CPU      0.22s WALL (     398 calls)
     s_psi        :      0.00s CPU      0.00s WALL (     398 calls)
     g_psi        :      0.00s CPU      0.00s WALL (     286 calls)

     Called by h_psi:
     h_psi:calbec :      0.00s CPU      0.00s WALL (     398 calls)
     vloc_psi     :      0.21s CPU      0.21s WALL (     398 calls)
     add_vuspsi   :      0.00s CPU      0.00s WALL (     398 calls)

     General routines
     calbec       :      0.00s CPU      0.00s WALL (     766 calls)
     fft          :      0.15s CPU      0.16s WALL (     102 calls)
     ffts         :      0.05s CPU      0.05s WALL (      12 calls)
     fftw         :      0.22s CPU      0.23s WALL (    3828 calls)
     interpolate  :      0.06s CPU      0.06s WALL (       6 calls)

     Parallel routines

     PWSCF        :      0.64s CPU      0.67s WALL


   This run was terminated on:   1:12:45  23Sep2026            

=------------------------------------------------------------------------------=
   JOB DONE.
=------------------------------------------------------------------------------=
Note: The following floating-point exceptions are signalling: IEEE_INVALID_FLAG IEEE_DIVIDE_BY_ZERO IEEE_UNDERFLOW_FLAG
Note: The following floating-point exceptions are signalling: IEEE_UNDERFLOW_FLAG
