
     Program PWSCF v.7.6 starts on 22Sep2026 at 23:45:25 

     This program is part of the open-source Quantum ESPRESSO suite
     for quantum simulation of materials; please cite
         "P. Giannozzi et al., J. Phys.:Condens. Matter 21 395502 (2009);
         "P. Giannozzi et al., J. Phys.:Condens. Matter 29 465901 (2017);
         "P. Giannozzi et al., J. Chem. Phys. 152 154105 (2020);
          URL http://www.quantum-espresso.org", 
     in publications or presentations arising from this work. More details at
     http://www.quantum-espresso.org/quote

     Parallel version (MPI), running on     2 processors

     MPI processes distributed on     1 nodes
     0 MiB available memory on the printing compute node when the environment starts

     Reading input from Al.scf.inp

     Current dimensions of program PWSCF are:
     Max number of different atomic species (ntypx) = 10
     Max number of k-points (npk) =  40000
     Max angular momentum in pseudopotentials (lmaxx) =  4

     R & G space division:  proc/nbgrp/npool/nimage =       2
     Subspace diagonalization in iterative solution of the eigenvalue problem:
     a serial algorithm will be used


     Parallelization info
     --------------------
     sticks:   dense  smooth     PW     G-vecs:    dense   smooth      PW
     Min         336     168     54                 5786     2007     373
     Max         337     169     55                 5789     2008     376
     Sum         673     337    109                11575     4015     749

     Using Slab Decomposition



     bravais-lattice index     =            2
     lattice parameter (alat)  =       9.0000  a.u.
     unit-cell volume          =     182.2500 (a.u.)^3
     number of atoms/cell      =            1
     number of atomic types    =            1
     number of electrons       =         3.00
     number of Kohn-Sham states=            6
     kinetic-energy cutoff     =      30.0000  Ry
     charge density cutoff     =     240.0000  Ry
     scf convergence threshold =      1.0E-08
     mixing beta               =       0.7000
     number of iterations used =            8  plain     mixing
     Exchange-correlation= SLA  PW   PBE  PBE
                           (   1   4   3   4   0   0   0)

     celldm(1)=   9.000000  celldm(2)=   0.000000  celldm(3)=   0.000000
     celldm(4)=   0.000000  celldm(5)=   0.000000  celldm(6)=   0.000000

     crystal axes: (cart. coord. in units of alat)
               a(1) = (  -0.500000   0.000000   0.500000 )  
               a(2) = (   0.000000   0.500000   0.500000 )  
               a(3) = (  -0.500000   0.500000   0.000000 )  

     reciprocal axes: (cart. coord. in units 2 pi/alat)
               b(1) = ( -1.000000 -1.000000  1.000000 )  
               b(2) = (  1.000000  1.000000  1.000000 )  
               b(3) = ( -1.000000  1.000000 -1.000000 )  


     PseudoPot. # 1 for Al read from file:
     /Users/zhy/Aluminum-from-First-Principles/Al.pbe-n-van.UPF
     MD5 check sum: cbc97ad259b400557db688b98a6ada97
     Pseudo is Ultrasoft + core correction, Zval =  3.0
     Generated by new atomic code, or converted to UPF format
     Using radial grid of  893 points,  2 beta functions with: 
                l(1) =   0
                l(2) =   1
     Q(r) pseudized with  8 coefficients,  rinner =    0.900   0.900   0.900


     atomic species   valence    mass     pseudopotential
     Al                3.00    26.98200     Al( 1.00)

     48 Sym. Ops., with inversion, found



   Cartesian axes

     site n.     atom                  positions (alat units)
         1        Al     tau(   1) = (   0.0000000   0.0000000   0.0000000  )

     number of k points=    16  Methfessel-Paxton smearing, width (Ry)=  0.0500
                       cart. coord. in units 2pi/alat
        k(    1) = (   0.0000000   0.0000000   0.0000000), wk =   0.0092593
        k(    2) = (  -0.1666667   0.1666667  -0.1666667), wk =   0.0740741
        k(    3) = (  -0.3333333   0.3333333  -0.3333333), wk =   0.0740741
        k(    4) = (   0.5000000  -0.5000000   0.5000000), wk =   0.0370370
        k(    5) = (   0.0000000   0.3333333   0.0000000), wk =   0.0555556
        k(    6) = (  -0.1666667   0.5000000  -0.1666667), wk =   0.2222222
        k(    7) = (   0.6666667  -0.3333333   0.6666667), wk =   0.2222222
        k(    8) = (   0.5000000  -0.1666667   0.5000000), wk =   0.2222222
        k(    9) = (   0.3333333   0.0000000   0.3333333), wk =   0.1111111
        k(   10) = (   0.0000000   0.6666667   0.0000000), wk =   0.0555556
        k(   11) = (   0.8333333  -0.1666667   0.8333333), wk =   0.2222222
        k(   12) = (   0.6666667   0.0000000   0.6666667), wk =   0.1111111
        k(   13) = (   0.0000000  -1.0000000   0.0000000), wk =   0.0277778
        k(   14) = (   0.6666667  -0.3333333   1.0000000), wk =   0.2222222
        k(   15) = (   0.5000000  -0.1666667   0.8333333), wk =   0.2222222
        k(   16) = (  -0.3333333  -1.0000000   0.0000000), wk =   0.1111111

     Dense  grid:    11575 G-vectors     FFT dimensions: (  32,  32,  32)

     Smooth grid:     4015 G-vectors     FFT dimensions: (  24,  24,  24)

     Estimated max dynamical RAM per process >       6.14 MB

     Estimated total dynamical RAM >      12.28 MB

     Initial potential from superposition of free atoms

     starting charge       2.9975, renormalised to       3.0000
     Starting wfcs are    4 randomized atomic wfcs +    2 random wfcs

     total cpu time spent up to now is        0.2 secs

     Self-consistent Calculation

     iteration #  1     ecut=    30.00 Ry     beta= 0.70
     Davidson diagonalization with overlap
     ethr =  1.00E-02,  avg # of iterations =  5.1

     Threshold (ethr) on eigenvalues was too large:
     Diagonalizing with lowered threshold

     Davidson diagonalization with overlap
     ethr =  1.91E-04,  avg # of iterations =  2.8

     total cpu time spent up to now is        0.3 secs

     total energy              =     -12.42196865 Ry
     estimated scf accuracy    <       0.00559710 Ry

     iteration #  2     ecut=    30.00 Ry     beta= 0.70
     Davidson diagonalization with overlap
     ethr =  1.87E-04,  avg # of iterations =  1.0

     total cpu time spent up to now is        0.3 secs

     total energy              =     -12.42210053 Ry
     estimated scf accuracy    <       0.00025984 Ry

     iteration #  3     ecut=    30.00 Ry     beta= 0.70
     Davidson diagonalization with overlap
     ethr =  8.66E-06,  avg # of iterations =  2.9

     total cpu time spent up to now is        0.4 secs

     total energy              =     -12.42213503 Ry
     estimated scf accuracy    <       0.00000099 Ry

     iteration #  4     ecut=    30.00 Ry     beta= 0.70
     Davidson diagonalization with overlap
     ethr =  3.30E-08,  avg # of iterations =  3.2

     total cpu time spent up to now is        0.4 secs

     total energy              =     -12.42213668 Ry
     estimated scf accuracy    <       0.00000006 Ry

     iteration #  5     ecut=    30.00 Ry     beta= 0.70
     Davidson diagonalization with overlap
     ethr =  1.92E-09,  avg # of iterations =  1.2

     total cpu time spent up to now is        0.4 secs

     End of self-consistent calculation

          k = 0.0000 0.0000 0.0000 (   531 PWs)   bands (ev):

    -4.5024  12.4176  12.4176  12.4176  13.9207  13.9208

          k =-0.1667 0.1667-0.1667 (   519 PWs)   bands (ev):

    -3.9639   8.4891  11.5387  11.5387  14.0473  15.1157

          k =-0.3333 0.3333-0.3333 (   504 PWs)   bands (ev):

    -2.3664   4.0302  10.9323  10.9323  13.6568  13.9415

          k = 0.5000-0.5000 0.5000 (   502 PWs)   bands (ev):

    -0.1864   0.8663  10.8332  10.8332  13.1465  13.6268

          k = 0.0000 0.3333 0.0000 (   516 PWs)   bands (ev):

    -3.7843   9.9817   9.9817  10.6129  11.5564  13.8431

          k =-0.1667 0.5000-0.1667 (   503 PWs)   bands (ev):

    -2.5377   5.8548   9.1900   9.3283  11.4059  14.1063

          k = 0.6667-0.3333 0.6667 (   508 PWs)   bands (ev):

    -0.3140   2.0260   7.8863   9.3103  11.2900  15.6006

          k = 0.5000-0.1667 0.5000 (   507 PWs)   bands (ev):

    -1.1440   3.1840   7.1493  10.3048  12.3781  14.9414

          k = 0.3333 0.0000 0.3333 (   503 PWs)   bands (ev):

    -3.0711   7.3236   7.3668  11.8376  14.3833  15.4880

          k = 0.0000 0.6667 0.0000 (   500 PWs)   bands (ev):

    -1.6489   6.4275   8.0948   8.0948   9.4855  10.3427

          k = 0.8333-0.1667 0.8333 (   503 PWs)   bands (ev):

     0.2647   4.0486   4.9693   7.9288   9.6784  12.8448

          k = 0.6667 0.0000 0.6667 (   506 PWs)   bands (ev):

     1.0270   3.2774   3.4949   8.7026  10.5348  17.1337

          k = 0.0000-1.0000 0.0000 (   492 PWs)   bands (ev):

     1.7639   1.9087   7.4548   7.4548   8.7778   9.5009

          k = 0.6667-0.3333 1.0000 (   501 PWs)   bands (ev):

    -0.9557   5.2997   5.3130   7.5562  13.5545  13.5801

          k = 0.5000-0.1667 0.8333 (   500 PWs)   bands (ev):

     1.2131   2.2086   5.4465   6.4161  13.6489  14.6137

          k =-0.3333-1.0000 0.0000 (   506 PWs)   bands (ev):

     2.2846   2.5934   4.6350   5.1448  12.9044  13.0569

     the Fermi energy is     3.5823 ev

!    total energy              =     -12.42213669 Ry
     estimated scf accuracy    <          1.9E-09 Ry
     smearing contrib. (-TS)   =      -0.00030994 Ry
     internal energy E=F+TS    =     -12.42182674 Ry

     The total energy is F=E-TS. E is the sum of the following terms:
     one-electron contribution =       1.95562113 Ry
     hartree contribution      =       0.02431595 Ry
     xc contribution           =      -9.81690176 Ry
     ewald contribution        =      -4.58486207 Ry

     convergence has been achieved in   5 iterations

     Forces acting on atoms (cartesian axes, Ry/au):

     atom    1 type  1   force =     0.00000000    0.00000000    0.00000000

     Total force =     0.000000     Total SCF correction =     0.000000


     Computing stress (Cartesian axis) and pressure

          total   stress  (Ry/bohr**3)                   (kbar)     P=     -124.16
  -0.00084404  -0.00000000  -0.00000000         -124.16       -0.00       -0.00
  -0.00000000  -0.00084404   0.00000000           -0.00     -124.16        0.00
  -0.00000000   0.00000000  -0.00084404           -0.00        0.00     -124.16


     Writing all to output data dir /Users/zhy/Aluminum-from-First-Principles/convergence-runs/cutoff-kmesh/ecut-030.0-ry_k-06x06x06_degauss-0.050-ry/qe-out/aluminum_ecut-030p0-ry_k-06x06x06_degauss-0p050-ry.save/ :
     XML data file, charge density, pseudopotentials, collected wavefunctions

     init_run     :      0.22s CPU      0.22s WALL (       1 calls)
     electrons    :      0.19s CPU      0.19s WALL (       1 calls)
     forces       :      0.00s CPU      0.00s WALL (       1 calls)
     stress       :      0.01s CPU      0.01s WALL (       1 calls)

     Called by init_run:
     wfcinit      :      0.01s CPU      0.01s WALL (       1 calls)
     potinit      :      0.10s CPU      0.10s WALL (       1 calls)
     hinit0       :      0.10s CPU      0.10s WALL (       1 calls)

     Called by electrons:
     c_bands      :      0.13s CPU      0.14s WALL (       6 calls)
     sum_band     :      0.03s CPU      0.03s WALL (       6 calls)
     v_of_rho     :      0.02s CPU      0.02s WALL (       6 calls)
     newd         :      0.00s CPU      0.00s WALL (       6 calls)
     mix_rho      :      0.00s CPU      0.00s WALL (       6 calls)

     Called by c_bands:
     init_us_2    :      0.00s CPU      0.00s WALL (     240 calls)
     cegterg      :      0.13s CPU      0.13s WALL (      96 calls)

     Called by *egterg:
     cdiaghg      :      0.01s CPU      0.01s WALL (     341 calls)
     h_psi        :      0.12s CPU      0.12s WALL (     373 calls)
     s_psi        :      0.00s CPU      0.00s WALL (     373 calls)
     g_psi        :      0.00s CPU      0.00s WALL (     261 calls)

     Called by h_psi:
     h_psi:calbec :      0.00s CPU      0.00s WALL (     373 calls)
     vloc_psi     :      0.12s CPU      0.12s WALL (     373 calls)
     add_vuspsi   :      0.00s CPU      0.00s WALL (     373 calls)

     General routines
     calbec       :      0.00s CPU      0.00s WALL (     741 calls)
     fft          :      0.08s CPU      0.08s WALL (     102 calls)
     ffts         :      0.09s CPU      0.10s WALL (      12 calls)
     fftw         :      0.12s CPU      0.13s WALL (    3738 calls)
     interpolate  :      0.09s CPU      0.10s WALL (       6 calls)

     Parallel routines

     PWSCF        :      0.43s CPU      0.45s WALL


   This run was terminated on:  23:45:25  22Sep2026            

=------------------------------------------------------------------------------=
   JOB DONE.
=------------------------------------------------------------------------------=
Note: The following floating-point exceptions are signalling: IEEE_INVALID_FLAG IEEE_DIVIDE_BY_ZERO IEEE_UNDERFLOW_FLAG
Note: The following floating-point exceptions are signalling: IEEE_UNDERFLOW_FLAG
