
     Program PWSCF v.7.6 starts on 22Sep2026 at 23:45:29 

     This program is part of the open-source Quantum ESPRESSO suite
     for quantum simulation of materials; please cite
         "P. Giannozzi et al., J. Phys.:Condens. Matter 21 395502 (2009);
         "P. Giannozzi et al., J. Phys.:Condens. Matter 29 465901 (2017);
         "P. Giannozzi et al., J. Chem. Phys. 152 154105 (2020);
          URL http://www.quantum-espresso.org", 
     in publications or presentations arising from this work. More details at
     http://www.quantum-espresso.org/quote

     Parallel version (MPI), running on     2 processors

     MPI processes distributed on     1 nodes
     0 MiB available memory on the printing compute node when the environment starts

     Reading input from Al.scf.inp

     Current dimensions of program PWSCF are:
     Max number of different atomic species (ntypx) = 10
     Max number of k-points (npk) =  40000
     Max angular momentum in pseudopotentials (lmaxx) =  4

     R & G space division:  proc/nbgrp/npool/nimage =       2
     Subspace diagonalization in iterative solution of the eigenvalue problem:
     a serial algorithm will be used


     Parallelization info
     --------------------
     sticks:   dense  smooth     PW     G-vecs:    dense   smooth      PW
     Min         336     168     60                 5786     2007     434
     Max         337     169     61                 5789     2008     435
     Sum         673     337    121                11575     4015     869

     Using Slab Decomposition



     bravais-lattice index     =            2
     lattice parameter (alat)  =       9.0000  a.u.
     unit-cell volume          =     182.2500 (a.u.)^3
     number of atoms/cell      =            1
     number of atomic types    =            1
     number of electrons       =         3.00
     number of Kohn-Sham states=            6
     kinetic-energy cutoff     =      30.0000  Ry
     charge density cutoff     =     240.0000  Ry
     scf convergence threshold =      1.0E-08
     mixing beta               =       0.7000
     number of iterations used =            8  plain     mixing
     Exchange-correlation= SLA  PW   PBE  PBE
                           (   1   4   3   4   0   0   0)

     celldm(1)=   9.000000  celldm(2)=   0.000000  celldm(3)=   0.000000
     celldm(4)=   0.000000  celldm(5)=   0.000000  celldm(6)=   0.000000

     crystal axes: (cart. coord. in units of alat)
               a(1) = (  -0.500000   0.000000   0.500000 )  
               a(2) = (   0.000000   0.500000   0.500000 )  
               a(3) = (  -0.500000   0.500000   0.000000 )  

     reciprocal axes: (cart. coord. in units 2 pi/alat)
               b(1) = ( -1.000000 -1.000000  1.000000 )  
               b(2) = (  1.000000  1.000000  1.000000 )  
               b(3) = ( -1.000000  1.000000 -1.000000 )  


     PseudoPot. # 1 for Al read from file:
     /Users/zhy/Aluminum-from-First-Principles/Al.pbe-n-van.UPF
     MD5 check sum: cbc97ad259b400557db688b98a6ada97
     Pseudo is Ultrasoft + core correction, Zval =  3.0
     Generated by new atomic code, or converted to UPF format
     Using radial grid of  893 points,  2 beta functions with: 
                l(1) =   0
                l(2) =   1
     Q(r) pseudized with  8 coefficients,  rinner =    0.900   0.900   0.900


     atomic species   valence    mass     pseudopotential
     Al                3.00    26.98200     Al( 1.00)

     48 Sym. Ops., with inversion, found



   Cartesian axes

     site n.     atom                  positions (alat units)
         1        Al     tau(   1) = (   0.0000000   0.0000000   0.0000000  )

     number of k points=   145  Methfessel-Paxton smearing, width (Ry)=  0.0500

     Number of k-points >= 100: set verbosity='high' to print them.

     Dense  grid:    11575 G-vectors     FFT dimensions: (  32,  32,  32)

     Smooth grid:     4015 G-vectors     FFT dimensions: (  24,  24,  24)

     Estimated max dynamical RAM per process >       9.13 MB

     Estimated total dynamical RAM >      18.25 MB

     Initial potential from superposition of free atoms

     starting charge       2.9975, renormalised to       3.0000
     Starting wfcs are    4 randomized atomic wfcs +    2 random wfcs

     total cpu time spent up to now is        0.3 secs

     Self-consistent Calculation

     iteration #  1     ecut=    30.00 Ry     beta= 0.70
     Davidson diagonalization with overlap
     ethr =  1.00E-02,  avg # of iterations =  5.2

     Threshold (ethr) on eigenvalues was too large:
     Diagonalizing with lowered threshold

     Davidson diagonalization with overlap
     ethr =  1.80E-04,  avg # of iterations =  3.0

     total cpu time spent up to now is        1.0 secs

     total energy              =     -12.41878850 Ry
     estimated scf accuracy    <       0.00525757 Ry

     iteration #  2     ecut=    30.00 Ry     beta= 0.70
     Davidson diagonalization with overlap
     ethr =  1.75E-04,  avg # of iterations =  1.0

     total cpu time spent up to now is        1.2 secs

     total energy              =     -12.41891233 Ry
     estimated scf accuracy    <       0.00024534 Ry

     iteration #  3     ecut=    30.00 Ry     beta= 0.70
     Davidson diagonalization with overlap
     c_bands:  1 eigenvalues not converged
     ethr =  8.18E-06,  avg # of iterations =  3.5

     total cpu time spent up to now is        1.4 secs

     total energy              =     -12.41894507 Ry
     estimated scf accuracy    <       0.00000106 Ry

     iteration #  4     ecut=    30.00 Ry     beta= 0.70
     Davidson diagonalization with overlap
     ethr =  3.53E-08,  avg # of iterations =  3.2

     total cpu time spent up to now is        1.7 secs

     total energy              =     -12.41894630 Ry
     estimated scf accuracy    <       0.00000006 Ry

     iteration #  5     ecut=    30.00 Ry     beta= 0.70
     Davidson diagonalization with overlap
     ethr =  2.02E-09,  avg # of iterations =  1.3

     total cpu time spent up to now is        1.9 secs

     End of self-consistent calculation

     Number of k-points >= 100: set verbosity='high' to print the bands.

     the Fermi energy is     3.6201 ev

!    total energy              =     -12.41894630 Ry
     estimated scf accuracy    <          1.5E-09 Ry
     smearing contrib. (-TS)   =       0.00008628 Ry
     internal energy E=F+TS    =     -12.41903258 Ry

     The total energy is F=E-TS. E is the sum of the following terms:
     one-electron contribution =       1.95892980 Ry
     hartree contribution      =       0.02509393 Ry
     xc contribution           =      -9.81819423 Ry
     ewald contribution        =      -4.58486207 Ry

     convergence has been achieved in   5 iterations

     Forces acting on atoms (cartesian axes, Ry/au):

     atom    1 type  1   force =     0.00000000    0.00000000    0.00000000

     Total force =     0.000000     Total SCF correction =     0.000000


     Computing stress (Cartesian axis) and pressure

          total   stress  (Ry/bohr**3)                   (kbar)     P=     -118.19
  -0.00080345  -0.00000000   0.00000000         -118.19       -0.00        0.00
  -0.00000000  -0.00080345  -0.00000000           -0.00     -118.19       -0.00
   0.00000000  -0.00000000  -0.00080345            0.00       -0.00     -118.19


     Writing all to output data dir /Users/zhy/Aluminum-from-First-Principles/convergence-runs/cutoff-kmesh/ecut-030.0-ry_k-16x16x16_degauss-0.050-ry/qe-out/aluminum_ecut-030p0-ry_k-16x16x16_degauss-0p050-ry.save/ :
     XML data file, charge density, pseudopotentials, collected wavefunctions

     init_run     :      0.29s CPU      0.30s WALL (       1 calls)
     electrons    :      1.51s CPU      1.56s WALL (       1 calls)
     forces       :      0.01s CPU      0.01s WALL (       1 calls)
     stress       :      0.04s CPU      0.04s WALL (       1 calls)

     Called by init_run:
     wfcinit      :      0.08s CPU      0.08s WALL (       1 calls)
     potinit      :      0.10s CPU      0.10s WALL (       1 calls)
     hinit0       :      0.10s CPU      0.10s WALL (       1 calls)

     Called by electrons:
     c_bands      :      1.25s CPU      1.30s WALL (       6 calls)
     sum_band     :      0.23s CPU      0.24s WALL (       6 calls)
     v_of_rho     :      0.02s CPU      0.02s WALL (       6 calls)
     newd         :      0.00s CPU      0.00s WALL (       6 calls)
     mix_rho      :      0.00s CPU      0.00s WALL (       6 calls)

     Called by c_bands:
     init_us_2    :      0.03s CPU      0.03s WALL (    2175 calls)
     cegterg      :      1.23s CPU      1.28s WALL (     870 calls)

     Called by *egterg:
     cdiaghg      :      0.07s CPU      0.07s WALL (    3236 calls)
     h_psi        :      1.14s CPU      1.17s WALL (    3526 calls)
     s_psi        :      0.01s CPU      0.01s WALL (    3526 calls)
     g_psi        :      0.00s CPU      0.00s WALL (    2511 calls)

     Called by h_psi:
     h_psi:calbec :      0.01s CPU      0.01s WALL (    3526 calls)
     vloc_psi     :      1.11s CPU      1.14s WALL (    3526 calls)
     add_vuspsi   :      0.01s CPU      0.01s WALL (    3526 calls)

     General routines
     calbec       :      0.02s CPU      0.02s WALL (    6861 calls)
     fft          :      0.09s CPU      0.09s WALL (     102 calls)
     ffts         :      0.09s CPU      0.10s WALL (      12 calls)
     fftw         :      1.18s CPU      1.20s WALL (   34668 calls)
     interpolate  :      0.09s CPU      0.10s WALL (       6 calls)

     Parallel routines

     PWSCF        :      1.89s CPU      1.97s WALL


   This run was terminated on:  23:45:31  22Sep2026            

=------------------------------------------------------------------------------=
   JOB DONE.
=------------------------------------------------------------------------------=
Note: The following floating-point exceptions are signalling: IEEE_UNDERFLOW_FLAG
Note: The following floating-point exceptions are signalling: IEEE_INVALID_FLAG IEEE_DIVIDE_BY_ZERO IEEE_UNDERFLOW_FLAG
