
     Program PWSCF v.7.6 starts on 23Sep2026 at  1:12:54 

     This program is part of the open-source Quantum ESPRESSO suite
     for quantum simulation of materials; please cite
         "P. Giannozzi et al., J. Phys.:Condens. Matter 21 395502 (2009);
         "P. Giannozzi et al., J. Phys.:Condens. Matter 29 465901 (2017);
         "P. Giannozzi et al., J. Chem. Phys. 152 154105 (2020);
          URL http://www.quantum-espresso.org", 
     in publications or presentations arising from this work. More details at
     http://www.quantum-espresso.org/quote

     Parallel version (MPI), running on     2 processors

     MPI processes distributed on     1 nodes
     0 MiB available memory on the printing compute node when the environment starts

     Reading input from Al.scf.inp

     Current dimensions of program PWSCF are:
     Max number of different atomic species (ntypx) = 10
     Max number of k-points (npk) =  40000
     Max angular momentum in pseudopotentials (lmaxx) =  4

     R & G space division:  proc/nbgrp/npool/nimage =       2
     Subspace diagonalization in iterative solution of the eigenvalue problem:
     a serial algorithm will be used


     Parallelization info
     --------------------
     sticks:   dense  smooth     PW     G-vecs:    dense   smooth      PW
     Min         561     279     84                12346     4327     735
     Max         562     280     85                12347     4330     736
     Sum        1123     559    169                24693     8657    1471

     Using Slab Decomposition



     bravais-lattice index     =            2
     lattice parameter (alat)  =       9.0000  a.u.
     unit-cell volume          =     182.2500 (a.u.)^3
     number of atoms/cell      =            1
     number of atomic types    =            1
     number of electrons       =         3.00
     number of Kohn-Sham states=            6
     kinetic-energy cutoff     =      50.0000  Ry
     charge density cutoff     =     400.0000  Ry
     scf convergence threshold =      1.0E-08
     mixing beta               =       0.7000
     number of iterations used =            8  plain     mixing
     Exchange-correlation= SLA  PW   PBE  PBE
                           (   1   4   3   4   0   0   0)

     celldm(1)=   9.000000  celldm(2)=   0.000000  celldm(3)=   0.000000
     celldm(4)=   0.000000  celldm(5)=   0.000000  celldm(6)=   0.000000

     crystal axes: (cart. coord. in units of alat)
               a(1) = (  -0.500000   0.000000   0.500000 )  
               a(2) = (   0.000000   0.500000   0.500000 )  
               a(3) = (  -0.500000   0.500000   0.000000 )  

     reciprocal axes: (cart. coord. in units 2 pi/alat)
               b(1) = ( -1.000000 -1.000000  1.000000 )  
               b(2) = (  1.000000  1.000000  1.000000 )  
               b(3) = ( -1.000000  1.000000 -1.000000 )  


     PseudoPot. # 1 for Al read from file:
     /Users/zhy/Aluminum-from-First-Principles/Al.pbe-n-van.UPF
     MD5 check sum: cbc97ad259b400557db688b98a6ada97
     Pseudo is Ultrasoft + core correction, Zval =  3.0
     Generated by new atomic code, or converted to UPF format
     Using radial grid of  893 points,  2 beta functions with: 
                l(1) =   0
                l(2) =   1
     Q(r) pseudized with  8 coefficients,  rinner =    0.900   0.900   0.900


     atomic species   valence    mass     pseudopotential
     Al                3.00    26.98200     Al( 1.00)

     48 Sym. Ops., with inversion, found



   Cartesian axes

     site n.     atom                  positions (alat units)
         1        Al     tau(   1) = (   0.0000000   0.0000000   0.0000000  )

     number of k points=    16  Methfessel-Paxton smearing, width (Ry)=  0.0500
                       cart. coord. in units 2pi/alat
        k(    1) = (   0.0000000   0.0000000   0.0000000), wk =   0.0092593
        k(    2) = (  -0.1666667   0.1666667  -0.1666667), wk =   0.0740741
        k(    3) = (  -0.3333333   0.3333333  -0.3333333), wk =   0.0740741
        k(    4) = (   0.5000000  -0.5000000   0.5000000), wk =   0.0370370
        k(    5) = (   0.0000000   0.3333333   0.0000000), wk =   0.0555556
        k(    6) = (  -0.1666667   0.5000000  -0.1666667), wk =   0.2222222
        k(    7) = (   0.6666667  -0.3333333   0.6666667), wk =   0.2222222
        k(    8) = (   0.5000000  -0.1666667   0.5000000), wk =   0.2222222
        k(    9) = (   0.3333333   0.0000000   0.3333333), wk =   0.1111111
        k(   10) = (   0.0000000   0.6666667   0.0000000), wk =   0.0555556
        k(   11) = (   0.8333333  -0.1666667   0.8333333), wk =   0.2222222
        k(   12) = (   0.6666667   0.0000000   0.6666667), wk =   0.1111111
        k(   13) = (   0.0000000  -1.0000000   0.0000000), wk =   0.0277778
        k(   14) = (   0.6666667  -0.3333333   1.0000000), wk =   0.2222222
        k(   15) = (   0.5000000  -0.1666667   0.8333333), wk =   0.2222222
        k(   16) = (  -0.3333333  -1.0000000   0.0000000), wk =   0.1111111

     Dense  grid:    24693 G-vectors     FFT dimensions: (  45,  45,  45)

     Smooth grid:     8657 G-vectors     FFT dimensions: (  30,  30,  30)

     Estimated max dynamical RAM per process >      13.81 MB

     Estimated total dynamical RAM >      27.62 MB

     Initial potential from superposition of free atoms

     starting charge       2.9975, renormalised to       3.0000
     Starting wfcs are    4 randomized atomic wfcs +    2 random wfcs

     total cpu time spent up to now is        0.3 secs

     Self-consistent Calculation

     iteration #  1     ecut=    50.00 Ry     beta= 0.70
     Davidson diagonalization with overlap
     ethr =  1.00E-02,  avg # of iterations =  5.6

     Threshold (ethr) on eigenvalues was too large:
     Diagonalizing with lowered threshold

     Davidson diagonalization with overlap
     ethr =  1.89E-04,  avg # of iterations =  2.6

     total cpu time spent up to now is        0.4 secs

     total energy              =     -12.42260349 Ry
     estimated scf accuracy    <       0.00551276 Ry

     iteration #  2     ecut=    50.00 Ry     beta= 0.70
     Davidson diagonalization with overlap
     ethr =  1.84E-04,  avg # of iterations =  1.0

     total cpu time spent up to now is        0.5 secs

     total energy              =     -12.42273691 Ry
     estimated scf accuracy    <       0.00025621 Ry

     iteration #  3     ecut=    50.00 Ry     beta= 0.70
     Davidson diagonalization with overlap
     c_bands:  1 eigenvalues not converged
     ethr =  8.54E-06,  avg # of iterations =  4.1

     total cpu time spent up to now is        0.5 secs

     total energy              =     -12.42277376 Ry
     estimated scf accuracy    <       0.00000106 Ry

     iteration #  4     ecut=    50.00 Ry     beta= 0.70
     Davidson diagonalization with overlap
     c_bands:  1 eigenvalues not converged
     ethr =  3.54E-08,  avg # of iterations =  4.3

     total cpu time spent up to now is        0.6 secs

     total energy              =     -12.42277540 Ry
     estimated scf accuracy    <       0.00000006 Ry

     iteration #  5     ecut=    50.00 Ry     beta= 0.70
     Davidson diagonalization with overlap
     ethr =  1.87E-09,  avg # of iterations =  1.4

     total cpu time spent up to now is        0.7 secs

     End of self-consistent calculation

          k = 0.0000 0.0000 0.0000 (  1067 PWs)   bands (ev):

    -4.5021  12.4070  12.4070  12.4070  13.9141  13.9141

          k =-0.1667 0.1667-0.1667 (  1080 PWs)   bands (ev):

    -3.9638   8.4807  11.5287  11.5288  14.0363  15.1054

          k =-0.3333 0.3333-0.3333 (  1089 PWs)   bands (ev):

    -2.3670   4.0257  10.9203  10.9203  13.6424  13.9318

          k = 0.5000-0.5000 0.5000 (  1068 PWs)   bands (ev):

    -0.1872   0.8631  10.8203  10.8203  13.1388  13.6106

          k = 0.0000 0.3333 0.0000 (  1082 PWs)   bands (ev):

    -3.7843   9.9730   9.9730  10.5974  11.5515  13.8363

          k =-0.1667 0.5000-0.1667 (  1083 PWs)   bands (ev):

    -2.5384   5.8500   9.1806   9.3191  11.4000  14.0936

          k = 0.6667-0.3333 0.6667 (  1095 PWs)   bands (ev):

    -0.3152   2.0225   7.8794   9.3021  11.2842  15.5890

          k = 0.5000-0.1667 0.5000 (  1095 PWs)   bands (ev):

    -1.1450   3.1801   7.1434  10.2943  12.3698  14.9310

          k = 0.3333 0.0000 0.3333 (  1077 PWs)   bands (ev):

    -3.0715   7.3174   7.3583  11.8233  14.3707  15.3026

          k = 0.0000 0.6667 0.0000 (  1078 PWs)   bands (ev):

    -1.6497   6.4206   8.0865   8.0865   9.4808  10.3360

          k = 0.8333-0.1667 0.8333 (  1086 PWs)   bands (ev):

     0.2629   4.0447   4.9652   7.9213   9.6731  12.8346

          k = 0.6667 0.0000 0.6667 (  1113 PWs)   bands (ev):

     1.0254   3.2732   3.4918   8.6945  10.5287  17.1183

          k = 0.0000-1.0000 0.0000 (  1106 PWs)   bands (ev):

     1.7619   1.9045   7.4467   7.4467   8.7734   9.4936

          k = 0.6667-0.3333 1.0000 (  1080 PWs)   bands (ev):

    -0.9572   5.2949   5.3082   7.5507  13.5441  13.5670

          k = 0.5000-0.1667 0.8333 (  1090 PWs)   bands (ev):

     1.2114   2.2050   5.4414   6.4110  13.6355  14.6008

          k =-0.3333-1.0000 0.0000 (  1090 PWs)   bands (ev):

     2.2830   2.5896   4.6307   5.1411  12.8950  13.0443

     the Fermi energy is     3.5784 ev

!    total energy              =     -12.42277540 Ry
     estimated scf accuracy    <          1.1E-09 Ry
     smearing contrib. (-TS)   =      -0.00030866 Ry
     internal energy E=F+TS    =     -12.42246674 Ry

     The total energy is F=E-TS. E is the sum of the following terms:
     one-electron contribution =       1.95588033 Ry
     hartree contribution      =       0.02439349 Ry
     xc contribution           =      -9.81787848 Ry
     ewald contribution        =      -4.58486207 Ry

     convergence has been achieved in   5 iterations

     Forces acting on atoms (cartesian axes, Ry/au):

     atom    1 type  1   force =     0.00000000    0.00000000    0.00000000

     Total force =     0.000000     Total SCF correction =     0.000000


     Computing stress (Cartesian axis) and pressure

          total   stress  (Ry/bohr**3)                   (kbar)     P=     -121.91
  -0.00082876   0.00000000  -0.00000000         -121.91        0.00       -0.00
   0.00000000  -0.00082876  -0.00000000            0.00     -121.91       -0.00
  -0.00000000  -0.00000000  -0.00082876           -0.00       -0.00     -121.91


     Writing all to output data dir /Users/zhy/Aluminum-from-First-Principles/convergence-runs/cutoff-kmesh/ecut-050.0-ry_k-06x06x06_degauss-0.050-ry/qe-out/aluminum_ecut-050p0-ry_k-06x06x06_degauss-0p050-ry.save/ :
     XML data file, charge density, pseudopotentials, collected wavefunctions

     init_run     :      0.25s CPU      0.26s WALL (       1 calls)
     electrons    :      0.40s CPU      0.41s WALL (       1 calls)
     forces       :      0.01s CPU      0.01s WALL (       1 calls)
     stress       :      0.04s CPU      0.04s WALL (       1 calls)

     Called by init_run:
     wfcinit      :      0.02s CPU      0.02s WALL (       1 calls)
     potinit      :      0.09s CPU      0.09s WALL (       1 calls)
     hinit0       :      0.11s CPU      0.11s WALL (       1 calls)

     Called by electrons:
     c_bands      :      0.27s CPU      0.28s WALL (       6 calls)
     sum_band     :      0.07s CPU      0.07s WALL (       6 calls)
     v_of_rho     :      0.05s CPU      0.05s WALL (       6 calls)
     newd         :      0.01s CPU      0.01s WALL (       6 calls)
     mix_rho      :      0.00s CPU      0.00s WALL (       6 calls)

     Called by c_bands:
     init_us_2    :      0.01s CPU      0.01s WALL (     240 calls)
     cegterg      :      0.27s CPU      0.27s WALL (      96 calls)

     Called by *egterg:
     cdiaghg      :      0.01s CPU      0.01s WALL (     384 calls)
     h_psi        :      0.25s CPU      0.26s WALL (     416 calls)
     s_psi        :      0.00s CPU      0.00s WALL (     416 calls)
     g_psi        :      0.00s CPU      0.00s WALL (     304 calls)

     Called by h_psi:
     h_psi:calbec :      0.00s CPU      0.00s WALL (     416 calls)
     vloc_psi     :      0.25s CPU      0.25s WALL (     416 calls)
     add_vuspsi   :      0.00s CPU      0.00s WALL (     416 calls)

     General routines
     calbec       :      0.00s CPU      0.00s WALL (     784 calls)
     fft          :      0.11s CPU      0.11s WALL (     102 calls)
     ffts         :      0.08s CPU      0.08s WALL (      12 calls)
     fftw         :      0.27s CPU      0.27s WALL (    3868 calls)
     interpolate  :      0.08s CPU      0.08s WALL (       6 calls)

     Parallel routines

     PWSCF        :      0.71s CPU      0.73s WALL


   This run was terminated on:   1:12:55  23Sep2026            

=------------------------------------------------------------------------------=
   JOB DONE.
=------------------------------------------------------------------------------=
Note: The following floating-point exceptions are signalling: IEEE_UNDERFLOW_FLAG
Note: The following floating-point exceptions are signalling: IEEE_INVALID_FLAG IEEE_DIVIDE_BY_ZERO IEEE_UNDERFLOW_FLAG
