
     Program PWSCF v.7.6 starts on 22Sep2026 at 23:45:16 

     This program is part of the open-source Quantum ESPRESSO suite
     for quantum simulation of materials; please cite
         "P. Giannozzi et al., J. Phys.:Condens. Matter 21 395502 (2009);
         "P. Giannozzi et al., J. Phys.:Condens. Matter 29 465901 (2017);
         "P. Giannozzi et al., J. Chem. Phys. 152 154105 (2020);
          URL http://www.quantum-espresso.org", 
     in publications or presentations arising from this work. More details at
     http://www.quantum-espresso.org/quote

     Parallel version (MPI), running on     2 processors

     MPI processes distributed on     1 nodes
     0 MiB available memory on the printing compute node when the environment starts

     Reading input from Al.scf.inp

     Current dimensions of program PWSCF are:
     Max number of different atomic species (ntypx) = 10
     Max number of k-points (npk) =  40000
     Max angular momentum in pseudopotentials (lmaxx) =  4

     R & G space division:  proc/nbgrp/npool/nimage =       2
     Subspace diagonalization in iterative solution of the eigenvalue problem:
     a serial algorithm will be used


     Parallelization info
     --------------------
     sticks:   dense  smooth     PW     G-vecs:    dense   smooth      PW
     Min         219     111     42                 3115     1114     264
     Max         220     112     43                 3116     1115     267
     Sum         439     223     85                 6231     2229     531

     Using Slab Decomposition



     bravais-lattice index     =            2
     lattice parameter (alat)  =       9.0000  a.u.
     unit-cell volume          =     182.2500 (a.u.)^3
     number of atoms/cell      =            1
     number of atomic types    =            1
     number of electrons       =         3.00
     number of Kohn-Sham states=            6
     kinetic-energy cutoff     =      20.0000  Ry
     charge density cutoff     =     160.0000  Ry
     scf convergence threshold =      1.0E-08
     mixing beta               =       0.7000
     number of iterations used =            8  plain     mixing
     Exchange-correlation= SLA  PW   PBE  PBE
                           (   1   4   3   4   0   0   0)

     celldm(1)=   9.000000  celldm(2)=   0.000000  celldm(3)=   0.000000
     celldm(4)=   0.000000  celldm(5)=   0.000000  celldm(6)=   0.000000

     crystal axes: (cart. coord. in units of alat)
               a(1) = (  -0.500000   0.000000   0.500000 )  
               a(2) = (   0.000000   0.500000   0.500000 )  
               a(3) = (  -0.500000   0.500000   0.000000 )  

     reciprocal axes: (cart. coord. in units 2 pi/alat)
               b(1) = ( -1.000000 -1.000000  1.000000 )  
               b(2) = (  1.000000  1.000000  1.000000 )  
               b(3) = ( -1.000000  1.000000 -1.000000 )  


     PseudoPot. # 1 for Al read from file:
     /Users/zhy/Aluminum-from-First-Principles/Al.pbe-n-van.UPF
     MD5 check sum: cbc97ad259b400557db688b98a6ada97
     Pseudo is Ultrasoft + core correction, Zval =  3.0
     Generated by new atomic code, or converted to UPF format
     Using radial grid of  893 points,  2 beta functions with: 
                l(1) =   0
                l(2) =   1
     Q(r) pseudized with  8 coefficients,  rinner =    0.900   0.900   0.900


     atomic species   valence    mass     pseudopotential
     Al                3.00    26.98200     Al( 1.00)

     48 Sym. Ops., with inversion, found



   Cartesian axes

     site n.     atom                  positions (alat units)
         1        Al     tau(   1) = (   0.0000000   0.0000000   0.0000000  )

     number of k points=    72  Methfessel-Paxton smearing, width (Ry)=  0.0500
                       cart. coord. in units 2pi/alat
        k(    1) = (   0.0000000   0.0000000   0.0000000), wk =   0.0011574
        k(    2) = (  -0.0833333   0.0833333  -0.0833333), wk =   0.0092593
        k(    3) = (  -0.1666667   0.1666667  -0.1666667), wk =   0.0092593
        k(    4) = (  -0.2500000   0.2500000  -0.2500000), wk =   0.0092593
        k(    5) = (  -0.3333333   0.3333333  -0.3333333), wk =   0.0092593
        k(    6) = (  -0.4166667   0.4166667  -0.4166667), wk =   0.0092593
        k(    7) = (   0.5000000  -0.5000000   0.5000000), wk =   0.0046296
        k(    8) = (   0.0000000   0.1666667   0.0000000), wk =   0.0069444
        k(    9) = (  -0.0833333   0.2500000  -0.0833333), wk =   0.0277778
        k(   10) = (  -0.1666667   0.3333333  -0.1666667), wk =   0.0277778
        k(   11) = (  -0.2500000   0.4166667  -0.2500000), wk =   0.0277778
        k(   12) = (  -0.3333333   0.5000000  -0.3333333), wk =   0.0277778
        k(   13) = (   0.5833333  -0.4166667   0.5833333), wk =   0.0277778
        k(   14) = (   0.5000000  -0.3333333   0.5000000), wk =   0.0277778
        k(   15) = (   0.4166667  -0.2500000   0.4166667), wk =   0.0277778
        k(   16) = (   0.3333333  -0.1666667   0.3333333), wk =   0.0277778
        k(   17) = (   0.2500000  -0.0833333   0.2500000), wk =   0.0277778
        k(   18) = (   0.1666667  -0.0000000   0.1666667), wk =   0.0138889
        k(   19) = (   0.0000000   0.3333333   0.0000000), wk =   0.0069444
        k(   20) = (  -0.0833333   0.4166667  -0.0833333), wk =   0.0277778
        k(   21) = (  -0.1666667   0.5000000  -0.1666667), wk =   0.0277778
        k(   22) = (  -0.2500000   0.5833333  -0.2500000), wk =   0.0277778
        k(   23) = (   0.6666667  -0.3333333   0.6666667), wk =   0.0277778
        k(   24) = (   0.5833333  -0.2500000   0.5833333), wk =   0.0277778
        k(   25) = (   0.5000000  -0.1666667   0.5000000), wk =   0.0277778
        k(   26) = (   0.4166667  -0.0833333   0.4166667), wk =   0.0277778
        k(   27) = (   0.3333333   0.0000000   0.3333333), wk =   0.0138889
        k(   28) = (   0.0000000   0.5000000   0.0000000), wk =   0.0069444
        k(   29) = (  -0.0833333   0.5833333  -0.0833333), wk =   0.0277778
        k(   30) = (  -0.1666667   0.6666667  -0.1666667), wk =   0.0277778
        k(   31) = (   0.7500000  -0.2500000   0.7500000), wk =   0.0277778
        k(   32) = (   0.6666667  -0.1666667   0.6666667), wk =   0.0277778
        k(   33) = (   0.5833333  -0.0833333   0.5833333), wk =   0.0277778
        k(   34) = (   0.5000000   0.0000000   0.5000000), wk =   0.0138889
        k(   35) = (   0.0000000   0.6666667   0.0000000), wk =   0.0069444
        k(   36) = (  -0.0833333   0.7500000  -0.0833333), wk =   0.0277778
        k(   37) = (   0.8333333  -0.1666667   0.8333333), wk =   0.0277778
        k(   38) = (   0.7500000  -0.0833333   0.7500000), wk =   0.0277778
        k(   39) = (   0.6666667   0.0000000   0.6666667), wk =   0.0138889
        k(   40) = (   0.0000000   0.8333333   0.0000000), wk =   0.0069444
        k(   41) = (   0.9166667  -0.0833333   0.9166667), wk =   0.0277778
        k(   42) = (   0.8333333   0.0000000   0.8333333), wk =   0.0138889
        k(   43) = (   0.0000000  -1.0000000   0.0000000), wk =   0.0034722
        k(   44) = (  -0.1666667   0.3333333   0.0000000), wk =   0.0277778
        k(   45) = (  -0.2500000   0.4166667  -0.0833333), wk =   0.0555556
        k(   46) = (  -0.3333333   0.5000000  -0.1666667), wk =   0.0555556
        k(   47) = (   0.5833333  -0.4166667   0.7500000), wk =   0.0555556
        k(   48) = (   0.5000000  -0.3333333   0.6666667), wk =   0.0277778
        k(   49) = (  -0.1666667   0.5000000   0.0000000), wk =   0.0277778
        k(   50) = (  -0.2500000   0.5833333  -0.0833333), wk =   0.0555556
        k(   51) = (   0.6666667  -0.3333333   0.8333333), wk =   0.0555556
        k(   52) = (   0.5833333  -0.2500000   0.7500000), wk =   0.0555556
        k(   53) = (   0.5000000  -0.1666667   0.6666667), wk =   0.0555556
        k(   54) = (   0.4166667  -0.0833333   0.5833333), wk =   0.0555556
        k(   55) = (   0.3333333   0.0000000   0.5000000), wk =   0.0277778
        k(   56) = (  -0.1666667   0.6666667  -0.0000000), wk =   0.0277778
        k(   57) = (   0.7500000  -0.2500000   0.9166667), wk =   0.0555556
        k(   58) = (   0.6666667  -0.1666667   0.8333333), wk =   0.0555556
        k(   59) = (   0.5833333  -0.0833333   0.7500000), wk =   0.0555556
        k(   60) = (   0.5000000   0.0000000   0.6666667), wk =   0.0277778
        k(   61) = (   0.8333333  -0.1666667   1.0000000), wk =   0.0277778
        k(   62) = (   0.7500000  -0.0833333   0.9166667), wk =   0.0555556
        k(   63) = (   0.6666667   0.0000000   0.8333333), wk =   0.0277778
        k(   64) = (  -0.1666667  -1.0000000   0.0000000), wk =   0.0138889
        k(   65) = (   0.6666667  -0.3333333   1.0000000), wk =   0.0277778
        k(   66) = (   0.5833333  -0.2500000   0.9166667), wk =   0.0555556
        k(   67) = (   0.5000000  -0.1666667   0.8333333), wk =   0.0277778
        k(   68) = (   0.6666667  -0.1666667   1.0000000), wk =   0.0277778
        k(   69) = (   0.5833333  -0.0833333   0.9166667), wk =   0.0555556
        k(   70) = (   0.5000000   0.0000000   0.8333333), wk =   0.0277778
        k(   71) = (  -0.3333333  -1.0000000   0.0000000), wk =   0.0138889
        k(   72) = (  -0.5000000  -1.0000000   0.0000000), wk =   0.0069444

     Dense  grid:     6231 G-vectors     FFT dimensions: (  25,  25,  25)

     Smooth grid:     2229 G-vectors     FFT dimensions: (  20,  20,  20)

     Estimated max dynamical RAM per process >       3.99 MB

     Estimated total dynamical RAM >       7.98 MB

     Initial potential from superposition of free atoms

     starting charge       2.9975, renormalised to       3.0000
     Starting wfcs are    4 randomized atomic wfcs +    2 random wfcs

     total cpu time spent up to now is        0.2 secs

     Self-consistent Calculation

     iteration #  1     ecut=    20.00 Ry     beta= 0.70
     Davidson diagonalization with overlap
     ethr =  1.00E-02,  avg # of iterations =  4.9

     Threshold (ethr) on eigenvalues was too large:
     Diagonalizing with lowered threshold

     Davidson diagonalization with overlap
     ethr =  1.93E-04,  avg # of iterations =  2.8

     total cpu time spent up to now is        0.3 secs

     total energy              =     -12.41557585 Ry
     estimated scf accuracy    <       0.00573780 Ry

     iteration #  2     ecut=    20.00 Ry     beta= 0.70
     Davidson diagonalization with overlap
     ethr =  1.91E-04,  avg # of iterations =  1.0

     total cpu time spent up to now is        0.4 secs

     total energy              =     -12.41569745 Ry
     estimated scf accuracy    <       0.00026616 Ry

     iteration #  3     ecut=    20.00 Ry     beta= 0.70
     Davidson diagonalization with overlap
     c_bands:  1 eigenvalues not converged
     ethr =  8.87E-06,  avg # of iterations =  3.3

     total cpu time spent up to now is        0.4 secs

     total energy              =     -12.41572236 Ry
     estimated scf accuracy    <       0.00000083 Ry

     iteration #  4     ecut=    20.00 Ry     beta= 0.70
     Davidson diagonalization with overlap
     ethr =  2.78E-08,  avg # of iterations =  3.2

     total cpu time spent up to now is        0.5 secs

     total energy              =     -12.41572344 Ry
     estimated scf accuracy    <       0.00000005 Ry

     iteration #  5     ecut=    20.00 Ry     beta= 0.70
     Davidson diagonalization with overlap
     ethr =  1.55E-09,  avg # of iterations =  1.4

     total cpu time spent up to now is        0.5 secs

     End of self-consistent calculation

          k = 0.0000 0.0000 0.0000 (   283 PWs)   bands (ev):

    -4.4980  12.5152  12.5152  12.5152  13.9746  13.9746

          k =-0.0833 0.0833-0.0833 (   277 PWs)   bands (ev):

    -4.3629  10.9228  12.1488  12.1488  14.2833  14.4994

          k =-0.1667 0.1667-0.1667 (   277 PWs)   bands (ev):

    -3.9588   8.5313  11.6219  11.6219  14.1293  15.1944

          k =-0.2500 0.2500-0.2500 (   280 PWs)   bands (ev):

    -3.2885   6.2038  11.2252  11.2252  13.8873  14.7924

          k =-0.3333 0.3333-0.3333 (   281 PWs)   bands (ev):

    -2.3586   4.0554  11.0012  11.0012  13.7451  13.9909

          k =-0.4167 0.4167-0.4167 (   269 PWs)   bands (ev):

    -1.1935   2.1522  10.9211  10.9211  13.4053  13.4053

          k = 0.5000-0.5000 0.5000 (   272 PWs)   bands (ev):

    -0.1751   0.8849  10.9073  10.9073  13.1898  13.7291

          k = 0.0000 0.1667 0.0000 (   279 PWs)   bands (ev):

    -4.3179  11.4027  11.4027  11.9764  13.0157  15.3146

          k =-0.0833 0.2500-0.0833 (   281 PWs)   bands (ev):

    -4.0035   9.4135  10.7624  11.6603  13.2319  15.4688

          k =-0.1667 0.3333-0.1667 (   285 PWs)   bands (ev):

    -3.4220   7.0660  10.3202  11.1475  13.3544  15.0158

          k =-0.2500 0.4167-0.2500 (   280 PWs)   bands (ev):

    -2.5778   4.8570  10.0997  10.6765  12.7537  14.9634

          k =-0.3333 0.5000-0.3333 (   270 PWs)   bands (ev):

    -1.4857   2.8677  10.0991  10.2095  12.4014  14.6044

          k = 0.5833-0.4167 0.5833 (   273 PWs)   bands (ev):

    -0.2622   1.2317   9.7684  10.3047  12.4600  14.0280

          k = 0.5000-0.3333 0.5000 (   274 PWs)   bands (ev):

    -0.6559   1.7081   9.4474  10.6854  12.8709  13.7326

          k = 0.4167-0.2500 0.4167 (   275 PWs)   bands (ev):

    -1.8753   3.5033   9.3110  11.1845  13.5656  13.7725

          k = 0.3333-0.1667 0.3333 (   285 PWs)   bands (ev):

    -2.8881   5.5739   9.3844  11.7255  14.1769  14.4275

          k = 0.2500-0.0833 0.2500 (   283 PWs)   bands (ev):

    -3.6454   7.8433   9.6852  12.2481  14.6801  14.6972

          k = 0.1667-0.0000 0.1667 (   279 PWs)   bands (ev):

    -4.1382  10.1825  10.2422  12.5630  14.3249  14.5707

          k = 0.0000 0.3333 0.0000 (   283 PWs)   bands (ev):

    -3.7791  10.0415  10.0415  10.6946  11.5911  13.8807

          k =-0.0833 0.4167-0.0833 (   288 PWs)   bands (ev):

    -3.2870   8.1146   9.5238  10.1588  11.7468  13.1298

          k =-0.1667 0.5000-0.1667 (   286 PWs)   bands (ev):

    -2.5308   5.8884   9.2385   9.3883  11.4366  14.1690

          k =-0.2500 0.5833-0.2500 (   278 PWs)   bands (ev):

    -1.5201   3.8340   8.6051   9.1874  11.2163  15.6420

          k = 0.6667-0.3333 0.6667 (   277 PWs)   bands (ev):

    -0.3021   2.0460   7.9329   9.3645  11.3286  16.3296

          k = 0.5833-0.2500 0.5833 (   266 PWs)   bands (ev):

     0.0901   1.5745   7.4527   9.7684  11.7454  15.2170

          k = 0.5000-0.1667 0.5000 (   273 PWs)   bands (ev):

    -1.1334   3.2076   7.1905  10.3700  12.4282  15.0058

          k = 0.4167-0.0833 0.4167 (   277 PWs)   bands (ev):

    -2.2227   5.1891   7.1675  11.1341  13.3528  15.0745

          k = 0.3333 0.0000 0.3333 (   279 PWs)   bands (ev):

    -3.0651   7.3597   7.4099  11.9270  14.4530  15.3679

          k = 0.0000 0.5000 0.0000 (   290 PWs)   bands (ev):

    -2.8849   8.8431   8.9360   8.9360  10.3869  11.6459

          k =-0.0833 0.5833-0.0833 (   280 PWs)   bands (ev):

    -2.2173   7.0212   8.0530   8.5763  10.4382  11.7992

          k =-0.1667 0.6667-0.1667 (   274 PWs)   bands (ev):

    -1.2921   5.0006   7.0126   8.4516  10.3041  13.3908

          k = 0.7500-0.2500 0.7500 (   271 PWs)   bands (ev):

    -0.1332   3.1448   6.1672   8.5629  10.3944  15.3020

          k = 0.6667-0.1667 0.6667 (   275 PWs)   bands (ev):

     0.8817   1.8974   5.5505   8.9072  10.7588  17.1143

          k = 0.5833-0.0833 0.5833 (   276 PWs)   bands (ev):

    -0.1445   3.1725   5.1798   9.4761  11.3881  16.7359

          k = 0.5000 0.0000 0.5000 (   273 PWs)   bands (ev):

    -1.3001   5.0051   5.1118  10.2454  12.2664  16.4267

          k = 0.0000 0.6667 0.0000 (   274 PWs)   bands (ev):

    -1.6392   6.4719   8.1393   8.1393   9.5115  10.3851

          k =-0.0833 0.7500-0.0833 (   273 PWs)   bands (ev):

    -0.8026   5.2650   6.6611   7.9375   9.6443  11.0532

          k = 0.8333-0.1667 0.8333 (   272 PWs)   bands (ev):

     0.2787   4.0770   4.9960   7.9742   9.7131  12.9121

          k = 0.7500-0.0833 0.7500 (   274 PWs)   bands (ev):

     1.4896   2.7839   3.9730   8.2467  10.0130  15.0471

          k = 0.6667 0.0000 0.6667 (   268 PWs)   bands (ev):

     1.0432   3.3015   3.5193   8.7560  10.5774  17.2373

          k = 0.0000 0.8333 0.0000 (   278 PWs)   bands (ev):

    -0.0556   4.0566   7.6571   7.6571   8.9808   9.7454

          k = 0.9167-0.0833 0.9167 (   274 PWs)   bands (ev):

     0.9405   2.9978   6.2605   7.6164   9.2663  10.6990

          k = 0.8333 0.0000 0.8333 (   276 PWs)   bands (ev):

     2.0354   2.2730   4.5729   7.8146   9.5245  12.7447

          k = 0.0000-1.0000 0.0000 (   286 PWs)   bands (ev):

     1.7796   1.9287   7.4919   7.4919   8.7990   9.5375

          k =-0.1667 0.3333 0.0000 (   288 PWs)   bands (ev):

    -3.6003   8.7981   8.8161  11.6618  13.1133  14.3830

          k =-0.2500 0.4167-0.0833 (   282 PWs)   bands (ev):

    -2.9311   6.5212   8.4258  11.0029  13.1620  14.6427

          k =-0.3333 0.5000-0.1667 (   278 PWs)   bands (ev):

    -2.0031   4.3886   8.2708  10.1948  12.8875  14.6434

          k = 0.5833-0.4167 0.7500 (   273 PWs)   bands (ev):

    -0.8405   2.4923   8.3143   9.5205  12.8501  14.0099

          k = 0.5000-0.3333 0.6667 (   274 PWs)   bands (ev):

     0.1798   1.2253   8.4057   9.2094  12.9121  13.7063

          k =-0.1667 0.5000 0.0000 (   283 PWs)   bands (ev):

    -2.7073   7.6086   7.6662   9.5942  11.9811  12.6141

          k =-0.2500 0.5833-0.0833 (   275 PWs)   bands (ev):

    -1.8660   5.4956   7.3590   8.6494  12.0099  13.8037

          k = 0.6667-0.3333 0.8333 (   272 PWs)   bands (ev):

    -0.7787   3.5328   7.1348   8.0104  12.0167  15.2768

          k = 0.5833-0.2500 0.7500 (   274 PWs)   bands (ev):

     0.4434   1.9079   6.7146   8.0206  12.2660  15.1110

          k = 0.5000-0.1667 0.6667 (   271 PWs)   bands (ev):

     0.0460   2.3893   6.3362   8.4705  12.7435  14.7687

          k = 0.4167-0.0833 0.5833 (   272 PWs)   bands (ev):

    -1.1695   4.1727   6.1621   9.1878  13.3960  14.6547

          k = 0.3333 0.0000 0.5000 (   278 PWs)   bands (ev):

    -2.1771   6.1869   6.2512  10.1041  14.0144  14.4044

          k =-0.1667 0.6667-0.0000 (   270 PWs)   bands (ev):

    -1.4648   6.3040   6.8337   7.5085  11.1469  11.6235

          k = 0.7500-0.2500 0.9167 (   274 PWs)   bands (ev):

    -0.4609   4.7036   5.8390   7.0598  11.3073  13.1858

          k = 0.6667-0.1667 0.8333 (   272 PWs)   bands (ev):

     0.7506   3.0115   5.0546   7.1829  11.5101  15.1821

          k = 0.5833-0.0833 0.7500 (   274 PWs)   bands (ev):

     1.1220   2.5847   4.5092   7.6061  11.9507  16.5211

          k = 0.5000 0.0000 0.6667 (   273 PWs)   bands (ev):

    -0.0922   4.1547   4.2700   8.2866  12.6164  16.3803

          k = 0.8333-0.1667 1.0000 (   274 PWs)   bands (ev):

     0.1141   4.1743   6.3278   6.6647  10.6407  11.0778

          k = 0.7500-0.0833 0.9167 (   274 PWs)   bands (ev):

     1.2602   3.2445   4.7239   6.6267  10.9620  12.8664

          k = 0.6667 0.0000 0.8333 (   270 PWs)   bands (ev):

     2.1034   2.7879   3.4766   6.9885  11.3404  15.0735

          k =-0.1667-1.0000 0.0000 (   276 PWs)   bands (ev):

     1.9240   2.1010   6.1600   6.4543  10.4709  10.9009

          k = 0.6667-0.3333 1.0000 (   274 PWs)   bands (ev):

    -0.9452   5.3341   5.3408   7.5965  13.6109  13.6574

          k = 0.5833-0.2500 0.9167 (   274 PWs)   bands (ev):

     0.2088   3.4863   5.3856   6.7944  13.6545  14.8033

          k = 0.5000-0.1667 0.8333 (   274 PWs)   bands (ev):

     1.2284   2.2299   5.4802   6.4463  13.7191  14.6848

          k = 0.6667-0.1667 1.0000 (   276 PWs)   bands (ev):

     0.6127   4.3007   4.8317   5.6565  13.1192  13.2743

          k = 0.5833-0.0833 0.9167 (   270 PWs)   bands (ev):

     1.8152   3.1280   4.1546   5.4893  13.4525  15.2090

          k = 0.5000 0.0000 0.8333 (   270 PWs)   bands (ev):

     1.3933   3.6429   3.7437   5.9678  13.8746  15.9220

          k =-0.3333-1.0000 0.0000 (   266 PWs)   bands (ev):

     2.3043   2.6169   4.6624   5.1724  12.9580  13.1409

          k =-0.5000-1.0000 0.0000 (   264 PWs)   bands (ev):

     2.5940   3.4726   3.4726   4.5654  14.9049  15.7716

     the Fermi energy is     3.6259 ev

!    total energy              =     -12.41572344 Ry
     estimated scf accuracy    <          1.5E-09 Ry
     smearing contrib. (-TS)   =       0.00010476 Ry
     internal energy E=F+TS    =     -12.41582820 Ry

     The total energy is F=E-TS. E is the sum of the following terms:
     one-electron contribution =       1.95643816 Ry
     hartree contribution      =       0.02457448 Ry
     xc contribution           =      -9.81197871 Ry
     ewald contribution        =      -4.58486213 Ry

     convergence has been achieved in   5 iterations

     Forces acting on atoms (cartesian axes, Ry/au):

     atom    1 type  1   force =     0.00000000    0.00000000    0.00000000

     Total force =     0.000000     Total SCF correction =     0.000000


     Computing stress (Cartesian axis) and pressure

          total   stress  (Ry/bohr**3)                   (kbar)     P=     -118.36
  -0.00080461   0.00000000   0.00000000         -118.36        0.00        0.00
   0.00000000  -0.00080461  -0.00000000            0.00     -118.36       -0.00
   0.00000000  -0.00000000  -0.00080461            0.00       -0.00     -118.36


     Writing all to output data dir /Users/zhy/Aluminum-from-First-Principles/convergence-runs/cutoff-kmesh/ecut-020.0-ry_k-12x12x12_degauss-0.050-ry/qe-out/aluminum_ecut-020p0-ry_k-12x12x12_degauss-0p050-ry.save/ :
     XML data file, charge density, pseudopotentials, collected wavefunctions

     init_run     :      0.17s CPU      0.17s WALL (       1 calls)
     electrons    :      0.34s CPU      0.36s WALL (       1 calls)
     forces       :      0.00s CPU      0.00s WALL (       1 calls)
     stress       :      0.02s CPU      0.02s WALL (       1 calls)

     Called by init_run:
     wfcinit      :      0.03s CPU      0.03s WALL (       1 calls)
     potinit      :      0.09s CPU      0.09s WALL (       1 calls)
     hinit0       :      0.05s CPU      0.05s WALL (       1 calls)

     Called by electrons:
     c_bands      :      0.27s CPU      0.29s WALL (       6 calls)
     sum_band     :      0.05s CPU      0.06s WALL (       6 calls)
     v_of_rho     :      0.01s CPU      0.01s WALL (       6 calls)
     newd         :      0.00s CPU      0.00s WALL (       6 calls)
     mix_rho      :      0.00s CPU      0.00s WALL (       6 calls)

     Called by c_bands:
     init_us_2    :      0.01s CPU      0.01s WALL (    1080 calls)
     cegterg      :      0.27s CPU      0.29s WALL (     432 calls)

     Called by *egterg:
     cdiaghg      :      0.03s CPU      0.03s WALL (    1557 calls)
     h_psi        :      0.23s CPU      0.25s WALL (    1701 calls)
     s_psi        :      0.00s CPU      0.00s WALL (    1701 calls)
     g_psi        :      0.00s CPU      0.00s WALL (    1197 calls)

     Called by h_psi:
     h_psi:calbec :      0.00s CPU      0.00s WALL (    1701 calls)
     vloc_psi     :      0.23s CPU      0.24s WALL (    1701 calls)
     add_vuspsi   :      0.00s CPU      0.00s WALL (    1701 calls)

     General routines
     calbec       :      0.01s CPU      0.01s WALL (    3357 calls)
     fft          :      0.04s CPU      0.04s WALL (     102 calls)
     ffts         :      0.08s CPU      0.08s WALL (      12 calls)
     fftw         :      0.23s CPU      0.24s WALL (   16878 calls)
     interpolate  :      0.08s CPU      0.08s WALL (       6 calls)

     Parallel routines

     PWSCF        :      0.55s CPU      0.59s WALL


   This run was terminated on:  23:45:17  22Sep2026            

=------------------------------------------------------------------------------=
   JOB DONE.
=------------------------------------------------------------------------------=
Note: The following floating-point exceptions are signalling: IEEE_UNDERFLOW_FLAG
Note: The following floating-point exceptions are signalling: IEEE_INVALID_FLAG IEEE_DIVIDE_BY_ZERO IEEE_UNDERFLOW_FLAG
