
     Program PWSCF v.7.6 starts on 22Sep2026 at 23:45:19 

     This program is part of the open-source Quantum ESPRESSO suite
     for quantum simulation of materials; please cite
         "P. Giannozzi et al., J. Phys.:Condens. Matter 21 395502 (2009);
         "P. Giannozzi et al., J. Phys.:Condens. Matter 29 465901 (2017);
         "P. Giannozzi et al., J. Chem. Phys. 152 154105 (2020);
          URL http://www.quantum-espresso.org", 
     in publications or presentations arising from this work. More details at
     http://www.quantum-espresso.org/quote

     Parallel version (MPI), running on     2 processors

     MPI processes distributed on     1 nodes
     0 MiB available memory on the printing compute node when the environment starts

     Reading input from Al.scf.inp

     Current dimensions of program PWSCF are:
     Max number of different atomic species (ntypx) = 10
     Max number of k-points (npk) =  40000
     Max angular momentum in pseudopotentials (lmaxx) =  4

     R & G space division:  proc/nbgrp/npool/nimage =       2
     Subspace diagonalization in iterative solution of the eigenvalue problem:
     a serial algorithm will be used


     Parallelization info
     --------------------
     sticks:   dense  smooth     PW     G-vecs:    dense   smooth      PW
     Min         279     141     45                 4327     1559     304
     Max         280     142     46                 4330     1560     305
     Sum         559     283     91                 8657     3119     609

     Using Slab Decomposition



     bravais-lattice index     =            2
     lattice parameter (alat)  =       9.0000  a.u.
     unit-cell volume          =     182.2500 (a.u.)^3
     number of atoms/cell      =            1
     number of atomic types    =            1
     number of electrons       =         3.00
     number of Kohn-Sham states=            6
     kinetic-energy cutoff     =      25.0000  Ry
     charge density cutoff     =     200.0000  Ry
     scf convergence threshold =      1.0E-08
     mixing beta               =       0.7000
     number of iterations used =            8  plain     mixing
     Exchange-correlation= SLA  PW   PBE  PBE
                           (   1   4   3   4   0   0   0)

     celldm(1)=   9.000000  celldm(2)=   0.000000  celldm(3)=   0.000000
     celldm(4)=   0.000000  celldm(5)=   0.000000  celldm(6)=   0.000000

     crystal axes: (cart. coord. in units of alat)
               a(1) = (  -0.500000   0.000000   0.500000 )  
               a(2) = (   0.000000   0.500000   0.500000 )  
               a(3) = (  -0.500000   0.500000   0.000000 )  

     reciprocal axes: (cart. coord. in units 2 pi/alat)
               b(1) = ( -1.000000 -1.000000  1.000000 )  
               b(2) = (  1.000000  1.000000  1.000000 )  
               b(3) = ( -1.000000  1.000000 -1.000000 )  


     PseudoPot. # 1 for Al read from file:
     /Users/zhy/Aluminum-from-First-Principles/Al.pbe-n-van.UPF
     MD5 check sum: cbc97ad259b400557db688b98a6ada97
     Pseudo is Ultrasoft + core correction, Zval =  3.0
     Generated by new atomic code, or converted to UPF format
     Using radial grid of  893 points,  2 beta functions with: 
                l(1) =   0
                l(2) =   1
     Q(r) pseudized with  8 coefficients,  rinner =    0.900   0.900   0.900


     atomic species   valence    mass     pseudopotential
     Al                3.00    26.98200     Al( 1.00)

     48 Sym. Ops., with inversion, found



   Cartesian axes

     site n.     atom                  positions (alat units)
         1        Al     tau(   1) = (   0.0000000   0.0000000   0.0000000  )

     number of k points=    16  Methfessel-Paxton smearing, width (Ry)=  0.0500
                       cart. coord. in units 2pi/alat
        k(    1) = (   0.0000000   0.0000000   0.0000000), wk =   0.0092593
        k(    2) = (  -0.1666667   0.1666667  -0.1666667), wk =   0.0740741
        k(    3) = (  -0.3333333   0.3333333  -0.3333333), wk =   0.0740741
        k(    4) = (   0.5000000  -0.5000000   0.5000000), wk =   0.0370370
        k(    5) = (   0.0000000   0.3333333   0.0000000), wk =   0.0555556
        k(    6) = (  -0.1666667   0.5000000  -0.1666667), wk =   0.2222222
        k(    7) = (   0.6666667  -0.3333333   0.6666667), wk =   0.2222222
        k(    8) = (   0.5000000  -0.1666667   0.5000000), wk =   0.2222222
        k(    9) = (   0.3333333   0.0000000   0.3333333), wk =   0.1111111
        k(   10) = (   0.0000000   0.6666667   0.0000000), wk =   0.0555556
        k(   11) = (   0.8333333  -0.1666667   0.8333333), wk =   0.2222222
        k(   12) = (   0.6666667   0.0000000   0.6666667), wk =   0.1111111
        k(   13) = (   0.0000000  -1.0000000   0.0000000), wk =   0.0277778
        k(   14) = (   0.6666667  -0.3333333   1.0000000), wk =   0.2222222
        k(   15) = (   0.5000000  -0.1666667   0.8333333), wk =   0.2222222
        k(   16) = (  -0.3333333  -1.0000000   0.0000000), wk =   0.1111111

     Dense  grid:     8657 G-vectors     FFT dimensions: (  30,  30,  30)

     Smooth grid:     3119 G-vectors     FFT dimensions: (  24,  24,  24)

     Estimated max dynamical RAM per process >       4.70 MB

     Estimated total dynamical RAM >       9.40 MB

     Initial potential from superposition of free atoms

     starting charge       2.9975, renormalised to       3.0000
     Starting wfcs are    4 randomized atomic wfcs +    2 random wfcs

     total cpu time spent up to now is        0.2 secs

     Self-consistent Calculation

     iteration #  1     ecut=    25.00 Ry     beta= 0.70
     Davidson diagonalization with overlap
     ethr =  1.00E-02,  avg # of iterations =  5.3

     Threshold (ethr) on eigenvalues was too large:
     Diagonalizing with lowered threshold

     Davidson diagonalization with overlap
     ethr =  1.93E-04,  avg # of iterations =  2.4

     total cpu time spent up to now is        0.3 secs

     total energy              =     -12.42085778 Ry
     estimated scf accuracy    <       0.00574576 Ry

     iteration #  2     ecut=    25.00 Ry     beta= 0.70
     Davidson diagonalization with overlap
     ethr =  1.92E-04,  avg # of iterations =  1.0

     total cpu time spent up to now is        0.3 secs

     total energy              =     -12.42098143 Ry
     estimated scf accuracy    <       0.00026786 Ry

     iteration #  3     ecut=    25.00 Ry     beta= 0.70
     Davidson diagonalization with overlap
     ethr =  8.93E-06,  avg # of iterations =  4.1

     total cpu time spent up to now is        0.4 secs

     total energy              =     -12.42101255 Ry
     estimated scf accuracy    <       0.00000094 Ry

     iteration #  4     ecut=    25.00 Ry     beta= 0.70
     Davidson diagonalization with overlap
     ethr =  3.13E-08,  avg # of iterations =  3.1

     total cpu time spent up to now is        0.4 secs

     total energy              =     -12.42101378 Ry
     estimated scf accuracy    <       0.00000006 Ry

     iteration #  5     ecut=    25.00 Ry     beta= 0.70
     Davidson diagonalization with overlap
     ethr =  1.92E-09,  avg # of iterations =  1.2

     total cpu time spent up to now is        0.4 secs

     End of self-consistent calculation

          k = 0.0000 0.0000 0.0000 (   387 PWs)   bands (ev):

    -4.5016  12.4602  12.4602  12.4602  13.9413  13.9414

          k =-0.1667 0.1667-0.1667 (   368 PWs)   bands (ev):

    -3.9625   8.5091  11.5768  11.5768  14.0838  15.1517

          k =-0.3333 0.3333-0.3333 (   389 PWs)   bands (ev):

    -2.3651   4.0367  10.9612  10.9612  13.6936  13.9601

          k = 0.5000-0.5000 0.5000 (   392 PWs)   bands (ev):

    -0.1848   0.8706  10.8610  10.8610  13.1607  13.6687

          k = 0.0000 0.3333 0.0000 (   371 PWs)   bands (ev):

    -3.7830  10.0092  10.0092  10.6499  11.5719  13.8595

          k =-0.1667 0.5000-0.1667 (   383 PWs)   bands (ev):

    -2.5362   5.8654   9.2120   9.3528  11.4200  14.1325

          k = 0.6667-0.3333 0.6667 (   381 PWs)   bands (ev):

    -0.3112   2.0312   7.9059   9.3351  11.3080  15.6285

          k = 0.5000-0.1667 0.5000 (   389 PWs)   bands (ev):

    -1.1416   3.1893   7.1644  10.3293  12.3961  14.9654

          k = 0.3333 0.0000 0.3333 (   385 PWs)   bands (ev):

    -3.0699   7.3368   7.3816  11.8708  14.4060  15.3312

          k = 0.0000 0.6667 0.0000 (   387 PWs)   bands (ev):

    -1.6467   6.4370   8.1123   8.1123   9.4977  10.3600

          k = 0.8333-0.1667 0.8333 (   382 PWs)   bands (ev):

     0.2685   4.0567   4.9784   7.9488   9.6948  12.8734

          k = 0.6667 0.0000 0.6667 (   383 PWs)   bands (ev):

     1.0312   3.2849   3.5022   8.7251  10.5533  17.1690

          k = 0.0000-1.0000 0.0000 (   388 PWs)   bands (ev):

     1.7674   1.9145   7.4699   7.4699   8.7887   9.5174

          k = 0.6667-0.3333 1.0000 (   397 PWs)   bands (ev):

    -0.9539   5.3076   5.3212   7.5685  13.5743  13.6073

          k = 0.5000-0.1667 0.8333 (   386 PWs)   bands (ev):

     1.2167   2.2150   5.4577   6.4270  13.6756  14.6395

          k =-0.3333-1.0000 0.0000 (   388 PWs)   bands (ev):

     2.2897   2.6009   4.6426   5.1527  12.9246  13.0892

     the Fermi energy is     3.5891 ev

!    total energy              =     -12.42101378 Ry
     estimated scf accuracy    <          1.6E-09 Ry
     smearing contrib. (-TS)   =      -0.00030540 Ry
     internal energy E=F+TS    =     -12.42070838 Ry

     The total energy is F=E-TS. E is the sum of the following terms:
     one-electron contribution =       1.95493516 Ry
     hartree contribution      =       0.02416098 Ry
     xc contribution           =      -9.81494240 Ry
     ewald contribution        =      -4.58486212 Ry

     convergence has been achieved in   5 iterations

     Forces acting on atoms (cartesian axes, Ry/au):

     atom    1 type  1   force =     0.00000000    0.00000000    0.00000000

     Total force =     0.000000     Total SCF correction =     0.000000


     Computing stress (Cartesian axis) and pressure

          total   stress  (Ry/bohr**3)                   (kbar)     P=     -125.73
  -0.00085470   0.00000000  -0.00000000         -125.73        0.00       -0.00
   0.00000000  -0.00085470  -0.00000000            0.00     -125.73       -0.00
  -0.00000000  -0.00000000  -0.00085470           -0.00       -0.00     -125.73


     Writing all to output data dir /Users/zhy/Aluminum-from-First-Principles/convergence-runs/cutoff-kmesh/ecut-025.0-ry_k-06x06x06_degauss-0.050-ry/qe-out/aluminum_ecut-025p0-ry_k-06x06x06_degauss-0p050-ry.save/ :
     XML data file, charge density, pseudopotentials, collected wavefunctions

     init_run     :      0.22s CPU      0.22s WALL (       1 calls)
     electrons    :      0.18s CPU      0.18s WALL (       1 calls)
     forces       :      0.00s CPU      0.00s WALL (       1 calls)
     stress       :      0.01s CPU      0.01s WALL (       1 calls)

     Called by init_run:
     wfcinit      :      0.01s CPU      0.01s WALL (       1 calls)
     potinit      :      0.10s CPU      0.10s WALL (       1 calls)
     hinit0       :      0.10s CPU      0.10s WALL (       1 calls)

     Called by electrons:
     c_bands      :      0.13s CPU      0.13s WALL (       6 calls)
     sum_band     :      0.03s CPU      0.03s WALL (       6 calls)
     v_of_rho     :      0.02s CPU      0.02s WALL (       6 calls)
     newd         :      0.00s CPU      0.00s WALL (       6 calls)
     mix_rho      :      0.00s CPU      0.00s WALL (       6 calls)

     Called by c_bands:
     init_us_2    :      0.00s CPU      0.00s WALL (     240 calls)
     cegterg      :      0.13s CPU      0.13s WALL (      96 calls)

     Called by *egterg:
     cdiaghg      :      0.01s CPU      0.01s WALL (     353 calls)
     h_psi        :      0.12s CPU      0.12s WALL (     385 calls)
     s_psi        :      0.00s CPU      0.00s WALL (     385 calls)
     g_psi        :      0.00s CPU      0.00s WALL (     273 calls)

     Called by h_psi:
     h_psi:calbec :      0.00s CPU      0.00s WALL (     385 calls)
     vloc_psi     :      0.12s CPU      0.12s WALL (     385 calls)
     add_vuspsi   :      0.00s CPU      0.00s WALL (     385 calls)

     General routines
     calbec       :      0.00s CPU      0.00s WALL (     753 calls)
     fft          :      0.09s CPU      0.09s WALL (     102 calls)
     ffts         :      0.09s CPU      0.09s WALL (      12 calls)
     fftw         :      0.12s CPU      0.13s WALL (    3776 calls)
     interpolate  :      0.09s CPU      0.09s WALL (       6 calls)

     Parallel routines

     PWSCF        :      0.42s CPU      0.44s WALL


   This run was terminated on:  23:45:19  22Sep2026            

=------------------------------------------------------------------------------=
   JOB DONE.
=------------------------------------------------------------------------------=
Note: The following floating-point exceptions are signalling: IEEE_UNDERFLOW_FLAG
Note: The following floating-point exceptions are signalling: IEEE_INVALID_FLAG IEEE_DIVIDE_BY_ZERO IEEE_UNDERFLOW_FLAG
