
     Program PWSCF v.7.6 starts on 23Sep2026 at  1:12:44 

     This program is part of the open-source Quantum ESPRESSO suite
     for quantum simulation of materials; please cite
         "P. Giannozzi et al., J. Phys.:Condens. Matter 21 395502 (2009);
         "P. Giannozzi et al., J. Phys.:Condens. Matter 29 465901 (2017);
         "P. Giannozzi et al., J. Chem. Phys. 152 154105 (2020);
          URL http://www.quantum-espresso.org", 
     in publications or presentations arising from this work. More details at
     http://www.quantum-espresso.org/quote

     Parallel version (MPI), running on     2 processors

     MPI processes distributed on     1 nodes
     0 MiB available memory on the printing compute node when the environment starts

     Reading input from Al.scf.inp

     Current dimensions of program PWSCF are:
     Max number of different atomic species (ntypx) = 10
     Max number of k-points (npk) =  40000
     Max angular momentum in pseudopotentials (lmaxx) =  4

     R & G space division:  proc/nbgrp/npool/nimage =       2
     Subspace diagonalization in iterative solution of the eigenvalue problem:
     a serial algorithm will be used


     Parallelization info
     --------------------
     sticks:   dense  smooth     PW     G-vecs:    dense   smooth      PW
     Min         501     249     81                10436     3694     645
     Max         502     250     82                10439     3697     646
     Sum        1003     499    163                20875     7391    1291

     Using Slab Decomposition



     bravais-lattice index     =            2
     lattice parameter (alat)  =       9.0000  a.u.
     unit-cell volume          =     182.2500 (a.u.)^3
     number of atoms/cell      =            1
     number of atomic types    =            1
     number of electrons       =         3.00
     number of Kohn-Sham states=            6
     kinetic-energy cutoff     =      45.0000  Ry
     charge density cutoff     =     360.0000  Ry
     scf convergence threshold =      1.0E-08
     mixing beta               =       0.7000
     number of iterations used =            8  plain     mixing
     Exchange-correlation= SLA  PW   PBE  PBE
                           (   1   4   3   4   0   0   0)

     celldm(1)=   9.000000  celldm(2)=   0.000000  celldm(3)=   0.000000
     celldm(4)=   0.000000  celldm(5)=   0.000000  celldm(6)=   0.000000

     crystal axes: (cart. coord. in units of alat)
               a(1) = (  -0.500000   0.000000   0.500000 )  
               a(2) = (   0.000000   0.500000   0.500000 )  
               a(3) = (  -0.500000   0.500000   0.000000 )  

     reciprocal axes: (cart. coord. in units 2 pi/alat)
               b(1) = ( -1.000000 -1.000000  1.000000 )  
               b(2) = (  1.000000  1.000000  1.000000 )  
               b(3) = ( -1.000000  1.000000 -1.000000 )  


     PseudoPot. # 1 for Al read from file:
     /Users/zhy/Aluminum-from-First-Principles/Al.pbe-n-van.UPF
     MD5 check sum: cbc97ad259b400557db688b98a6ada97
     Pseudo is Ultrasoft + core correction, Zval =  3.0
     Generated by new atomic code, or converted to UPF format
     Using radial grid of  893 points,  2 beta functions with: 
                l(1) =   0
                l(2) =   1
     Q(r) pseudized with  8 coefficients,  rinner =    0.900   0.900   0.900


     atomic species   valence    mass     pseudopotential
     Al                3.00    26.98200     Al( 1.00)

     48 Sym. Ops., with inversion, found



   Cartesian axes

     site n.     atom                  positions (alat units)
         1        Al     tau(   1) = (   0.0000000   0.0000000   0.0000000  )

     number of k points=     8  Methfessel-Paxton smearing, width (Ry)=  0.0500
                       cart. coord. in units 2pi/alat
        k(    1) = (   0.0000000   0.0000000   0.0000000), wk =   0.0312500
        k(    2) = (  -0.2500000   0.2500000  -0.2500000), wk =   0.2500000
        k(    3) = (   0.5000000  -0.5000000   0.5000000), wk =   0.1250000
        k(    4) = (   0.0000000   0.5000000   0.0000000), wk =   0.1875000
        k(    5) = (   0.7500000  -0.2500000   0.7500000), wk =   0.7500000
        k(    6) = (   0.5000000   0.0000000   0.5000000), wk =   0.3750000
        k(    7) = (   0.0000000  -1.0000000   0.0000000), wk =   0.0937500
        k(    8) = (  -0.5000000  -1.0000000   0.0000000), wk =   0.1875000

     Dense  grid:    20875 G-vectors     FFT dimensions: (  40,  40,  40)

     Smooth grid:     7391 G-vectors     FFT dimensions: (  27,  27,  27)

     Estimated max dynamical RAM per process >      10.85 MB

     Estimated total dynamical RAM >      21.70 MB

     Initial potential from superposition of free atoms

     starting charge       2.9975, renormalised to       3.0000
     Starting wfcs are    4 randomized atomic wfcs +    2 random wfcs

     total cpu time spent up to now is        0.3 secs

     Self-consistent Calculation

     iteration #  1     ecut=    45.00 Ry     beta= 0.70
     Davidson diagonalization with overlap
     ethr =  1.00E-02,  avg # of iterations =  5.6

     Threshold (ethr) on eigenvalues was too large:
     Diagonalizing with lowered threshold

     Davidson diagonalization with overlap
     ethr =  1.27E-04,  avg # of iterations =  3.0

     total cpu time spent up to now is        0.4 secs

     total energy              =     -12.40826617 Ry
     estimated scf accuracy    <       0.00368614 Ry

     iteration #  2     ecut=    45.00 Ry     beta= 0.70
     Davidson diagonalization with overlap
     ethr =  1.23E-04,  avg # of iterations =  1.0

     total cpu time spent up to now is        0.4 secs

     total energy              =     -12.40836034 Ry
     estimated scf accuracy    <       0.00018123 Ry

     iteration #  3     ecut=    45.00 Ry     beta= 0.70
     Davidson diagonalization with overlap
     ethr =  6.04E-06,  avg # of iterations =  2.5

     total cpu time spent up to now is        0.4 secs

     total energy              =     -12.40838749 Ry
     estimated scf accuracy    <       0.00000105 Ry

     iteration #  4     ecut=    45.00 Ry     beta= 0.70
     Davidson diagonalization with overlap
     ethr =  3.51E-08,  avg # of iterations =  2.9

     total cpu time spent up to now is        0.5 secs

     total energy              =     -12.40838881 Ry
     estimated scf accuracy    <       0.00000006 Ry

     iteration #  5     ecut=    45.00 Ry     beta= 0.70
     Davidson diagonalization with overlap
     ethr =  1.86E-09,  avg # of iterations =  1.5

     total cpu time spent up to now is        0.5 secs

     End of self-consistent calculation

          k = 0.0000 0.0000 0.0000 (   941 PWs)   bands (ev):

    -4.4844  12.4413  12.4413  12.4413  13.9308  13.9308

          k =-0.2500 0.2500-0.2500 (   932 PWs)   bands (ev):

    -3.2765   6.1851  11.1696  11.1696  13.8180  14.7375

          k = 0.5000-0.5000 0.5000 (   912 PWs)   bands (ev):

    -0.1633   0.8766  10.8509  10.8509  13.1522  13.6457

          k = 0.0000 0.5000 0.0000 (   950 PWs)   bands (ev):

    -2.8730   8.8026   8.9027   8.9027  10.3686  11.6187

          k = 0.7500-0.2500 0.7500 (   932 PWs)   bands (ev):

    -0.1272   3.1365   6.1463   8.5295  10.3695  15.2283

          k = 0.5000 0.0000 0.5000 (   919 PWs)   bands (ev):

    -1.2920   4.9898   5.0996  10.1985  12.2278  16.3474

          k = 0.0000-1.0000 0.0000 (   934 PWs)   bands (ev):

     1.7889   1.9197   7.4683   7.4683   8.7858   9.5165

          k =-0.5000-1.0000 0.0000 (   932 PWs)   bands (ev):

     2.6039   3.4591   3.4591   4.5510  14.8198  15.7060

     the Fermi energy is     3.4150 ev

!    total energy              =     -12.40838881 Ry
     estimated scf accuracy    <          1.8E-09 Ry
     smearing contrib. (-TS)   =      -0.00437067 Ry
     internal energy E=F+TS    =     -12.40401814 Ry

     The total energy is F=E-TS. E is the sum of the following terms:
     one-electron contribution =       1.97746306 Ry
     hartree contribution      =       0.02858067 Ry
     xc contribution           =      -9.82519980 Ry
     ewald contribution        =      -4.58486207 Ry

     convergence has been achieved in   5 iterations

     Forces acting on atoms (cartesian axes, Ry/au):

     atom    1 type  1   force =     0.00000000    0.00000000    0.00000000

     Total force =     0.000000     Total SCF correction =     0.000000


     Computing stress (Cartesian axis) and pressure

          total   stress  (Ry/bohr**3)                   (kbar)     P=      -85.88
  -0.00058377   0.00000000   0.00000000          -85.88        0.00        0.00
   0.00000000  -0.00058377  -0.00000000            0.00      -85.88       -0.00
   0.00000000  -0.00000000  -0.00058377            0.00       -0.00      -85.88


     Writing all to output data dir /Users/zhy/Aluminum-from-First-Principles/convergence-runs/cutoff-kmesh/ecut-045.0-ry_k-04x04x04_degauss-0.050-ry/qe-out/aluminum_ecut-045p0-ry_k-04x04x04_degauss-0p050-ry.save/ :
     XML data file, charge density, pseudopotentials, collected wavefunctions

     init_run     :      0.26s CPU      0.28s WALL (       1 calls)
     electrons    :      0.19s CPU      0.20s WALL (       1 calls)
     forces       :      0.01s CPU      0.01s WALL (       1 calls)
     stress       :      0.02s CPU      0.03s WALL (       1 calls)

     Called by init_run:
     wfcinit      :      0.01s CPU      0.01s WALL (       1 calls)
     potinit      :      0.06s CPU      0.07s WALL (       1 calls)
     hinit0       :      0.16s CPU      0.17s WALL (       1 calls)

     Called by electrons:
     c_bands      :      0.11s CPU      0.12s WALL (       6 calls)
     sum_band     :      0.03s CPU      0.04s WALL (       6 calls)
     v_of_rho     :      0.04s CPU      0.04s WALL (       6 calls)
     newd         :      0.01s CPU      0.01s WALL (       6 calls)
     mix_rho      :      0.00s CPU      0.00s WALL (       6 calls)

     Called by c_bands:
     init_us_2    :      0.00s CPU      0.00s WALL (     120 calls)
     cegterg      :      0.11s CPU      0.11s WALL (      48 calls)

     Called by *egterg:
     cdiaghg      :      0.00s CPU      0.01s WALL (     172 calls)
     h_psi        :      0.10s CPU      0.11s WALL (     188 calls)
     s_psi        :      0.00s CPU      0.00s WALL (     188 calls)
     g_psi        :      0.00s CPU      0.00s WALL (     132 calls)

     Called by h_psi:
     h_psi:calbec :      0.00s CPU      0.00s WALL (     188 calls)
     vloc_psi     :      0.10s CPU      0.10s WALL (     188 calls)
     add_vuspsi   :      0.00s CPU      0.00s WALL (     188 calls)

     General routines
     calbec       :      0.00s CPU      0.00s WALL (     372 calls)
     fft          :      0.16s CPU      0.16s WALL (     102 calls)
     ffts         :      0.05s CPU      0.05s WALL (      12 calls)
     fftw         :      0.11s CPU      0.11s WALL (    1864 calls)
     interpolate  :      0.05s CPU      0.05s WALL (       6 calls)

     Parallel routines

     PWSCF        :      0.50s CPU      0.56s WALL


   This run was terminated on:   1:12:45  23Sep2026            

=------------------------------------------------------------------------------=
   JOB DONE.
=------------------------------------------------------------------------------=
Note: The following floating-point exceptions are signalling: IEEE_UNDERFLOW_FLAG
Note: The following floating-point exceptions are signalling: IEEE_INVALID_FLAG IEEE_DIVIDE_BY_ZERO IEEE_UNDERFLOW_FLAG
