
     Program PWSCF v.7.6 starts on 23Sep2026 at  1:12:55 

     This program is part of the open-source Quantum ESPRESSO suite
     for quantum simulation of materials; please cite
         "P. Giannozzi et al., J. Phys.:Condens. Matter 21 395502 (2009);
         "P. Giannozzi et al., J. Phys.:Condens. Matter 29 465901 (2017);
         "P. Giannozzi et al., J. Chem. Phys. 152 154105 (2020);
          URL http://www.quantum-espresso.org", 
     in publications or presentations arising from this work. More details at
     http://www.quantum-espresso.org/quote

     Parallel version (MPI), running on     2 processors

     MPI processes distributed on     1 nodes
     0 MiB available memory on the printing compute node when the environment starts

     Reading input from Al.scf.inp

     Current dimensions of program PWSCF are:
     Max number of different atomic species (ntypx) = 10
     Max number of k-points (npk) =  40000
     Max angular momentum in pseudopotentials (lmaxx) =  4

     R & G space division:  proc/nbgrp/npool/nimage =       2
     Subspace diagonalization in iterative solution of the eigenvalue problem:
     a serial algorithm will be used


     Parallelization info
     --------------------
     sticks:   dense  smooth     PW     G-vecs:    dense   smooth      PW
     Min         561     279     84                12346     4327     735
     Max         562     280     85                12347     4330     736
     Sum        1123     559    169                24693     8657    1471

     Using Slab Decomposition



     bravais-lattice index     =            2
     lattice parameter (alat)  =       9.0000  a.u.
     unit-cell volume          =     182.2500 (a.u.)^3
     number of atoms/cell      =            1
     number of atomic types    =            1
     number of electrons       =         3.00
     number of Kohn-Sham states=            6
     kinetic-energy cutoff     =      50.0000  Ry
     charge density cutoff     =     400.0000  Ry
     scf convergence threshold =      1.0E-08
     mixing beta               =       0.7000
     number of iterations used =            8  plain     mixing
     Exchange-correlation= SLA  PW   PBE  PBE
                           (   1   4   3   4   0   0   0)

     celldm(1)=   9.000000  celldm(2)=   0.000000  celldm(3)=   0.000000
     celldm(4)=   0.000000  celldm(5)=   0.000000  celldm(6)=   0.000000

     crystal axes: (cart. coord. in units of alat)
               a(1) = (  -0.500000   0.000000   0.500000 )  
               a(2) = (   0.000000   0.500000   0.500000 )  
               a(3) = (  -0.500000   0.500000   0.000000 )  

     reciprocal axes: (cart. coord. in units 2 pi/alat)
               b(1) = ( -1.000000 -1.000000  1.000000 )  
               b(2) = (  1.000000  1.000000  1.000000 )  
               b(3) = ( -1.000000  1.000000 -1.000000 )  


     PseudoPot. # 1 for Al read from file:
     /Users/zhy/Aluminum-from-First-Principles/Al.pbe-n-van.UPF
     MD5 check sum: cbc97ad259b400557db688b98a6ada97
     Pseudo is Ultrasoft + core correction, Zval =  3.0
     Generated by new atomic code, or converted to UPF format
     Using radial grid of  893 points,  2 beta functions with: 
                l(1) =   0
                l(2) =   1
     Q(r) pseudized with  8 coefficients,  rinner =    0.900   0.900   0.900


     atomic species   valence    mass     pseudopotential
     Al                3.00    26.98200     Al( 1.00)

     48 Sym. Ops., with inversion, found



   Cartesian axes

     site n.     atom                  positions (alat units)
         1        Al     tau(   1) = (   0.0000000   0.0000000   0.0000000  )

     number of k points=    29  Methfessel-Paxton smearing, width (Ry)=  0.0500
                       cart. coord. in units 2pi/alat
        k(    1) = (   0.0000000   0.0000000   0.0000000), wk =   0.0039062
        k(    2) = (  -0.1250000   0.1250000  -0.1250000), wk =   0.0312500
        k(    3) = (  -0.2500000   0.2500000  -0.2500000), wk =   0.0312500
        k(    4) = (  -0.3750000   0.3750000  -0.3750000), wk =   0.0312500
        k(    5) = (   0.5000000  -0.5000000   0.5000000), wk =   0.0156250
        k(    6) = (   0.0000000   0.2500000   0.0000000), wk =   0.0234375
        k(    7) = (  -0.1250000   0.3750000  -0.1250000), wk =   0.0937500
        k(    8) = (  -0.2500000   0.5000000  -0.2500000), wk =   0.0937500
        k(    9) = (   0.6250000  -0.3750000   0.6250000), wk =   0.0937500
        k(   10) = (   0.5000000  -0.2500000   0.5000000), wk =   0.0937500
        k(   11) = (   0.3750000  -0.1250000   0.3750000), wk =   0.0937500
        k(   12) = (   0.2500000   0.0000000   0.2500000), wk =   0.0468750
        k(   13) = (   0.0000000   0.5000000   0.0000000), wk =   0.0234375
        k(   14) = (  -0.1250000   0.6250000  -0.1250000), wk =   0.0937500
        k(   15) = (   0.7500000  -0.2500000   0.7500000), wk =   0.0937500
        k(   16) = (   0.6250000  -0.1250000   0.6250000), wk =   0.0937500
        k(   17) = (   0.5000000   0.0000000   0.5000000), wk =   0.0468750
        k(   18) = (   0.0000000   0.7500000   0.0000000), wk =   0.0234375
        k(   19) = (   0.8750000  -0.1250000   0.8750000), wk =   0.0937500
        k(   20) = (   0.7500000   0.0000000   0.7500000), wk =   0.0468750
        k(   21) = (   0.0000000  -1.0000000   0.0000000), wk =   0.0117188
        k(   22) = (  -0.2500000   0.5000000   0.0000000), wk =   0.0937500
        k(   23) = (   0.6250000  -0.3750000   0.8750000), wk =   0.1875000
        k(   24) = (   0.5000000  -0.2500000   0.7500000), wk =   0.0937500
        k(   25) = (   0.7500000  -0.2500000   1.0000000), wk =   0.0937500
        k(   26) = (   0.6250000  -0.1250000   0.8750000), wk =   0.1875000
        k(   27) = (   0.5000000   0.0000000   0.7500000), wk =   0.0937500
        k(   28) = (  -0.2500000  -1.0000000   0.0000000), wk =   0.0468750
        k(   29) = (  -0.5000000  -1.0000000   0.0000000), wk =   0.0234375

     Dense  grid:    24693 G-vectors     FFT dimensions: (  45,  45,  45)

     Smooth grid:     8657 G-vectors     FFT dimensions: (  30,  30,  30)

     Estimated max dynamical RAM per process >      14.46 MB

     Estimated total dynamical RAM >      28.91 MB

     Initial potential from superposition of free atoms

     starting charge       2.9975, renormalised to       3.0000
     Starting wfcs are    4 randomized atomic wfcs +    2 random wfcs

     total cpu time spent up to now is        0.3 secs

     Self-consistent Calculation

     iteration #  1     ecut=    50.00 Ry     beta= 0.70
     Davidson diagonalization with overlap
     ethr =  1.00E-02,  avg # of iterations =  5.1

     Threshold (ethr) on eigenvalues was too large:
     Diagonalizing with lowered threshold

     Davidson diagonalization with overlap
     ethr =  1.78E-04,  avg # of iterations =  3.1

     total cpu time spent up to now is        0.5 secs

     total energy              =     -12.41835847 Ry
     estimated scf accuracy    <       0.00517883 Ry

     iteration #  2     ecut=    50.00 Ry     beta= 0.70
     Davidson diagonalization with overlap
     ethr =  1.73E-04,  avg # of iterations =  1.0

     total cpu time spent up to now is        0.6 secs

     total energy              =     -12.41848698 Ry
     estimated scf accuracy    <       0.00024078 Ry

     iteration #  3     ecut=    50.00 Ry     beta= 0.70
     Davidson diagonalization with overlap
     c_bands:  2 eigenvalues not converged
     ethr =  8.03E-06,  avg # of iterations =  4.4

     total cpu time spent up to now is        0.8 secs

     total energy              =     -12.41852136 Ry
     estimated scf accuracy    <       0.00000113 Ry

     iteration #  4     ecut=    50.00 Ry     beta= 0.70
     Davidson diagonalization with overlap
     ethr =  3.78E-08,  avg # of iterations =  3.1

     total cpu time spent up to now is        0.9 secs

     total energy              =     -12.41852276 Ry
     estimated scf accuracy    <       0.00000007 Ry

     iteration #  5     ecut=    50.00 Ry     beta= 0.70
     Davidson diagonalization with overlap
     ethr =  2.31E-09,  avg # of iterations =  1.2

     total cpu time spent up to now is        1.0 secs

     End of self-consistent calculation

          k = 0.0000 0.0000 0.0000 (  1067 PWs)   bands (ev):

    -4.4986  12.4136  12.4136  12.4136  13.9173  13.9173

          k =-0.1250 0.1250-0.1250 (  1076 PWs)   bands (ev):

    -4.1955   9.6775  11.7854  11.7854  14.1592  14.8338

          k =-0.2500 0.2500-0.2500 (  1083 PWs)   bands (ev):

    -3.2910   6.1683  11.1466  11.1466  13.7946  14.7216

          k =-0.3750 0.3750-0.3750 (  1089 PWs)   bands (ev):

    -1.8080   3.0455  10.8700  10.8700  13.6059  13.6195

          k = 0.5000-0.5000 0.5000 (  1068 PWs)   bands (ev):

    -0.1826   0.8658  10.8261  10.8262  13.1414  13.6172

          k = 0.0000 0.2500 0.0000 (  1082 PWs)   bands (ev):

    -4.0944  10.6258  10.6258  11.3002  12.2493  15.2429

          k =-0.1250 0.3750-0.1250 (  1085 PWs)   bands (ev):

    -3.3902   7.5315   9.8398  10.6135  12.5087  14.1486

          k =-0.2500 0.5000-0.2500 (  1094 PWs)   bands (ev):

    -2.0967   4.2770   9.5508   9.6795  11.8323  15.4368

          k = 0.6250-0.3750 0.6250 (  1096 PWs)   bands (ev):

    -0.3120   1.5769   8.8040   9.7650  11.8365  14.7285

          k = 0.5000-0.2500 0.5000 (  1095 PWs)   bands (ev):

    -0.9372   2.3868   8.2724  10.4403  12.5678  14.2437

          k = 0.3750-0.1250 0.3750 (  1088 PWs)   bands (ev):

    -2.5921   5.3190   8.2259  11.4392  13.8657  14.4205

          k = 0.2500 0.0000 0.2500 (  1087 PWs)   bands (ev):

    -3.6918   8.6969   8.7062  12.3200  14.6990  14.9215

          k = 0.0000 0.5000 0.0000 (  1094 PWs)   bands (ev):

    -2.8877   8.7751   8.8841   8.8841  10.3582  11.6073

          k =-0.1250 0.6250-0.1250 (  1077 PWs)   bands (ev):

    -1.7922   5.9657   7.4655   8.4341  10.3215  12.4586

          k = 0.7500-0.2500 0.7500 (  1088 PWs)   bands (ev):

    -0.1437   3.1212   6.1287   8.5111  10.3560  15.2082

          k = 0.6250-0.1250 0.6250 (  1093 PWs)   bands (ev):

     0.4674   2.3433   5.3030   9.1076  10.9970  16.7905

          k = 0.5000 0.0000 0.5000 (  1097 PWs)   bands (ev):

    -1.3076   4.9764   5.0801  10.1774  12.2126  16.3290

          k = 0.0000 0.7500 0.0000 (  1090 PWs)   bands (ev):

    -0.8974   5.2109   7.8113   7.8113   9.1743   9.9592

          k = 0.8750-0.1250 0.8750 (  1092 PWs)   bands (ev):

     0.5658   3.5936   5.4694   7.7184   9.4300  11.6979

          k = 0.7500 0.0000 0.7500 (  1101 PWs)   bands (ev):

     2.0069   2.6781   3.3824   8.1577   9.9278  14.9218

          k = 0.0000-1.0000 0.0000 (  1106 PWs)   bands (ev):

     1.7673   1.9073   7.4509   7.4509   8.7757   9.4985

          k =-0.2500 0.5000 0.0000 (  1086 PWs)   bands (ev):

    -2.4902   6.8585   6.8681   9.7853  13.0919  13.4115

          k = 0.6250-0.3750 0.8750 (  1084 PWs)   bands (ev):

    -1.0144   3.7956   6.7074   8.4252  13.0490  14.5533

          k = 0.5000-0.2500 0.7500 (  1086 PWs)   bands (ev):

     0.6102   1.6270   6.8397   7.7596  13.1432  14.0504

          k = 0.7500-0.2500 1.0000 (  1077 PWs)   bands (ev):

    -0.5121   5.1864   5.7263   6.4986  11.9903  12.2780

          k = 0.6250-0.1250 0.8750 (  1092 PWs)   bands (ev):

     1.2545   3.0167   4.5484   6.2672  12.3836  15.0838

          k = 0.5000 0.0000 0.7500 (  1096 PWs)   bands (ev):

     0.6112   3.8299   3.9429   7.0531  13.1315  16.0368

          k =-0.2500-1.0000 0.0000 (  1094 PWs)   bands (ev):

     2.0796   2.2929   5.3467   5.7391  11.6167  11.9095

          k =-0.5000-1.0000 0.0000 (  1084 PWs)   bands (ev):

     2.5772   3.4463   3.4463   4.5405  14.7963  15.6890

     the Fermi energy is     3.6003 ev

!    total energy              =     -12.41852276 Ry
     estimated scf accuracy    <          1.7E-09 Ry
     smearing contrib. (-TS)   =      -0.00100872 Ry
     internal energy E=F+TS    =     -12.41751404 Ry

     The total energy is F=E-TS. E is the sum of the following terms:
     one-electron contribution =       1.96135313 Ry
     hartree contribution      =       0.02524873 Ry
     xc contribution           =      -9.81925384 Ry
     ewald contribution        =      -4.58486207 Ry

     convergence has been achieved in   5 iterations

     Forces acting on atoms (cartesian axes, Ry/au):

     atom    1 type  1   force =     0.00000000    0.00000000    0.00000000

     Total force =     0.000000     Total SCF correction =     0.000000


     Computing stress (Cartesian axis) and pressure

          total   stress  (Ry/bohr**3)                   (kbar)     P=     -114.81
  -0.00078047  -0.00000000  -0.00000000         -114.81       -0.00       -0.00
  -0.00000000  -0.00078047   0.00000000           -0.00     -114.81        0.00
   0.00000000   0.00000000  -0.00078047            0.00        0.00     -114.81


     Writing all to output data dir /Users/zhy/Aluminum-from-First-Principles/convergence-runs/cutoff-kmesh/ecut-050.0-ry_k-08x08x08_degauss-0.050-ry/qe-out/aluminum_ecut-050p0-ry_k-08x08x08_degauss-0p050-ry.save/ :
     XML data file, charge density, pseudopotentials, collected wavefunctions

     init_run     :      0.27s CPU      0.27s WALL (       1 calls)
     electrons    :      0.65s CPU      0.67s WALL (       1 calls)
     forces       :      0.01s CPU      0.01s WALL (       1 calls)
     stress       :      0.04s CPU      0.04s WALL (       1 calls)

     Called by init_run:
     wfcinit      :      0.03s CPU      0.03s WALL (       1 calls)
     potinit      :      0.09s CPU      0.09s WALL (       1 calls)
     hinit0       :      0.11s CPU      0.11s WALL (       1 calls)

     Called by electrons:
     c_bands      :      0.49s CPU      0.50s WALL (       6 calls)
     sum_band     :      0.11s CPU      0.11s WALL (       6 calls)
     v_of_rho     :      0.05s CPU      0.05s WALL (       6 calls)
     newd         :      0.01s CPU      0.01s WALL (       6 calls)
     mix_rho      :      0.00s CPU      0.00s WALL (       6 calls)

     Called by c_bands:
     init_us_2    :      0.01s CPU      0.01s WALL (     435 calls)
     cegterg      :      0.48s CPU      0.49s WALL (     174 calls)

     Called by *egterg:
     cdiaghg      :      0.01s CPU      0.01s WALL (     665 calls)
     h_psi        :      0.46s CPU      0.46s WALL (     723 calls)
     s_psi        :      0.00s CPU      0.00s WALL (     723 calls)
     g_psi        :      0.00s CPU      0.00s WALL (     520 calls)

     Called by h_psi:
     h_psi:calbec :      0.00s CPU      0.00s WALL (     723 calls)
     vloc_psi     :      0.45s CPU      0.45s WALL (     723 calls)
     add_vuspsi   :      0.00s CPU      0.00s WALL (     723 calls)

     General routines
     calbec       :      0.01s CPU      0.01s WALL (    1390 calls)
     fft          :      0.11s CPU      0.11s WALL (     102 calls)
     ffts         :      0.08s CPU      0.08s WALL (      12 calls)
     fftw         :      0.48s CPU      0.49s WALL (    6990 calls)
     interpolate  :      0.08s CPU      0.08s WALL (       6 calls)

     Parallel routines

     PWSCF        :      0.99s CPU      1.02s WALL


   This run was terminated on:   1:12:56  23Sep2026            

=------------------------------------------------------------------------------=
   JOB DONE.
=------------------------------------------------------------------------------=
Note: The following floating-point exceptions are signalling: IEEE_UNDERFLOW_FLAG
Note: The following floating-point exceptions are signalling: IEEE_INVALID_FLAG IEEE_DIVIDE_BY_ZERO IEEE_UNDERFLOW_FLAG
