
     Program PWSCF v.7.6 starts on 23Sep2026 at  1:27:55 

     This program is part of the open-source Quantum ESPRESSO suite
     for quantum simulation of materials; please cite
         "P. Giannozzi et al., J. Phys.:Condens. Matter 21 395502 (2009);
         "P. Giannozzi et al., J. Phys.:Condens. Matter 29 465901 (2017);
         "P. Giannozzi et al., J. Chem. Phys. 152 154105 (2020);
          URL http://www.quantum-espresso.org", 
     in publications or presentations arising from this work. More details at
     http://www.quantum-espresso.org/quote

     Parallel version (MPI), running on     2 processors

     MPI processes distributed on     1 nodes
     0 MiB available memory on the printing compute node when the environment starts

     Reading input from Al.scf.inp

     Current dimensions of program PWSCF are:
     Max number of different atomic species (ntypx) = 10
     Max number of k-points (npk) =  40000
     Max angular momentum in pseudopotentials (lmaxx) =  4

     R & G space division:  proc/nbgrp/npool/nimage =       2
     Subspace diagonalization in iterative solution of the eigenvalue problem:
     a serial algorithm will be used


     Parallelization info
     --------------------
     sticks:   dense  smooth     PW     G-vecs:    dense   smooth      PW
     Min         384     189     60                 7164     2513     469
     Max         385     190     61                 7167     2516     472
     Sum         769     379    121                14331     5029     941

     Using Slab Decomposition



     bravais-lattice index     =            2
     lattice parameter (alat)  =       9.0000  a.u.
     unit-cell volume          =     182.2500 (a.u.)^3
     number of atoms/cell      =            1
     number of atomic types    =            1
     number of electrons       =         3.00
     number of Kohn-Sham states=            6
     kinetic-energy cutoff     =      35.0000  Ry
     charge density cutoff     =     280.0000  Ry
     scf convergence threshold =      1.0E-08
     mixing beta               =       0.7000
     number of iterations used =            8  plain     mixing
     Exchange-correlation= SLA  PW   PBE  PBE
                           (   1   4   3   4   0   0   0)

     celldm(1)=   9.000000  celldm(2)=   0.000000  celldm(3)=   0.000000
     celldm(4)=   0.000000  celldm(5)=   0.000000  celldm(6)=   0.000000

     crystal axes: (cart. coord. in units of alat)
               a(1) = (  -0.500000   0.000000   0.500000 )  
               a(2) = (   0.000000   0.500000   0.500000 )  
               a(3) = (  -0.500000   0.500000   0.000000 )  

     reciprocal axes: (cart. coord. in units 2 pi/alat)
               b(1) = ( -1.000000 -1.000000  1.000000 )  
               b(2) = (  1.000000  1.000000  1.000000 )  
               b(3) = ( -1.000000  1.000000 -1.000000 )  


     PseudoPot. # 1 for Al read from file:
     /Users/zhy/Aluminum-from-First-Principles/Al.pbe-n-van.UPF
     MD5 check sum: cbc97ad259b400557db688b98a6ada97
     Pseudo is Ultrasoft + core correction, Zval =  3.0
     Generated by new atomic code, or converted to UPF format
     Using radial grid of  893 points,  2 beta functions with: 
                l(1) =   0
                l(2) =   1
     Q(r) pseudized with  8 coefficients,  rinner =    0.900   0.900   0.900


     atomic species   valence    mass     pseudopotential
     Al                3.00    26.98200     Al( 1.00)

     48 Sym. Ops., with inversion, found



   Cartesian axes

     site n.     atom                  positions (alat units)
         1        Al     tau(   1) = (   0.0000000   0.0000000   0.0000000  )

     number of k points=    29  Methfessel-Paxton smearing, width (Ry)=  0.0200
                       cart. coord. in units 2pi/alat
        k(    1) = (   0.0000000   0.0000000   0.0000000), wk =   0.0039062
        k(    2) = (  -0.1250000   0.1250000  -0.1250000), wk =   0.0312500
        k(    3) = (  -0.2500000   0.2500000  -0.2500000), wk =   0.0312500
        k(    4) = (  -0.3750000   0.3750000  -0.3750000), wk =   0.0312500
        k(    5) = (   0.5000000  -0.5000000   0.5000000), wk =   0.0156250
        k(    6) = (   0.0000000   0.2500000   0.0000000), wk =   0.0234375
        k(    7) = (  -0.1250000   0.3750000  -0.1250000), wk =   0.0937500
        k(    8) = (  -0.2500000   0.5000000  -0.2500000), wk =   0.0937500
        k(    9) = (   0.6250000  -0.3750000   0.6250000), wk =   0.0937500
        k(   10) = (   0.5000000  -0.2500000   0.5000000), wk =   0.0937500
        k(   11) = (   0.3750000  -0.1250000   0.3750000), wk =   0.0937500
        k(   12) = (   0.2500000   0.0000000   0.2500000), wk =   0.0468750
        k(   13) = (   0.0000000   0.5000000   0.0000000), wk =   0.0234375
        k(   14) = (  -0.1250000   0.6250000  -0.1250000), wk =   0.0937500
        k(   15) = (   0.7500000  -0.2500000   0.7500000), wk =   0.0937500
        k(   16) = (   0.6250000  -0.1250000   0.6250000), wk =   0.0937500
        k(   17) = (   0.5000000   0.0000000   0.5000000), wk =   0.0468750
        k(   18) = (   0.0000000   0.7500000   0.0000000), wk =   0.0234375
        k(   19) = (   0.8750000  -0.1250000   0.8750000), wk =   0.0937500
        k(   20) = (   0.7500000   0.0000000   0.7500000), wk =   0.0468750
        k(   21) = (   0.0000000  -1.0000000   0.0000000), wk =   0.0117188
        k(   22) = (  -0.2500000   0.5000000   0.0000000), wk =   0.0937500
        k(   23) = (   0.6250000  -0.3750000   0.8750000), wk =   0.1875000
        k(   24) = (   0.5000000  -0.2500000   0.7500000), wk =   0.0937500
        k(   25) = (   0.7500000  -0.2500000   1.0000000), wk =   0.0937500
        k(   26) = (   0.6250000  -0.1250000   0.8750000), wk =   0.1875000
        k(   27) = (   0.5000000   0.0000000   0.7500000), wk =   0.0937500
        k(   28) = (  -0.2500000  -1.0000000   0.0000000), wk =   0.0468750
        k(   29) = (  -0.5000000  -1.0000000   0.0000000), wk =   0.0234375

     Dense  grid:    14331 G-vectors     FFT dimensions: (  36,  36,  36)

     Smooth grid:     5029 G-vectors     FFT dimensions: (  24,  24,  24)

     Estimated max dynamical RAM per process >       8.18 MB

     Estimated total dynamical RAM >      16.35 MB

     Initial potential from superposition of free atoms

     starting charge       2.9975, renormalised to       3.0000
     Starting wfcs are    4 randomized atomic wfcs +    2 random wfcs

     total cpu time spent up to now is        0.3 secs

     Self-consistent Calculation

     iteration #  1     ecut=    35.00 Ry     beta= 0.70
     Davidson diagonalization with overlap
     ethr =  1.00E-02,  avg # of iterations =  5.0

     Threshold (ethr) on eigenvalues was too large:
     Diagonalizing with lowered threshold

     Davidson diagonalization with overlap
     ethr =  1.80E-04,  avg # of iterations =  3.5

     total cpu time spent up to now is        0.5 secs

     total energy              =     -12.41779563 Ry
     estimated scf accuracy    <       0.00524805 Ry

     iteration #  2     ecut=    35.00 Ry     beta= 0.70
     Davidson diagonalization with overlap
     ethr =  1.75E-04,  avg # of iterations =  1.0

     total cpu time spent up to now is        0.5 secs

     total energy              =     -12.41792167 Ry
     estimated scf accuracy    <       0.00024347 Ry

     iteration #  3     ecut=    35.00 Ry     beta= 0.70
     Davidson diagonalization with overlap
     ethr =  8.12E-06,  avg # of iterations =  4.0

     total cpu time spent up to now is        0.6 secs

     total energy              =     -12.41795595 Ry
     estimated scf accuracy    <       0.00000118 Ry

     iteration #  4     ecut=    35.00 Ry     beta= 0.70
     Davidson diagonalization with overlap
     ethr =  3.93E-08,  avg # of iterations =  2.9

     total cpu time spent up to now is        0.6 secs

     total energy              =     -12.41795730 Ry
     estimated scf accuracy    <       0.00000007 Ry

     iteration #  5     ecut=    35.00 Ry     beta= 0.70
     Davidson diagonalization with overlap
     ethr =  2.45E-09,  avg # of iterations =  1.4

     total cpu time spent up to now is        0.7 secs

     End of self-consistent calculation

          k = 0.0000 0.0000 0.0000 (   609 PWs)   bands (ev):

    -4.4987  12.4178  12.4178  12.4178  13.9208  13.9209

          k =-0.1250 0.1250-0.1250 (   631 PWs)   bands (ev):

    -4.1957   9.6793  11.7887  11.7887  14.1621  14.8375

          k =-0.2500 0.2500-0.2500 (   631 PWs)   bands (ev):

    -3.2912   6.1692  11.1494  11.1494  13.7981  14.7250

          k =-0.3750 0.3750-0.3750 (   622 PWs)   bands (ev):

    -1.8081   3.0462  10.8730  10.8730  13.6090  13.6235

          k = 0.5000-0.5000 0.5000 (   628 PWs)   bands (ev):

    -0.1828   0.8662  10.8290  10.8290  13.1444  13.6218

          k = 0.0000 0.2500 0.0000 (   629 PWs)   bands (ev):

    -4.0946  10.6284  10.6284  11.3034  12.2517  15.2455

          k =-0.1250 0.3750-0.1250 (   632 PWs)   bands (ev):

    -3.3903   7.5326   9.8419  10.6160  12.5111  14.1514

          k =-0.2500 0.5000-0.2500 (   629 PWs)   bands (ev):

    -2.0968   4.2779   9.5531   9.6818  11.8344  15.4410

          k = 0.6250-0.3750 0.6250 (   634 PWs)   bands (ev):

    -0.3120   1.5773   8.8061   9.7676  11.8390  14.7318

          k = 0.5000-0.2500 0.5000 (   632 PWs)   bands (ev):

    -0.9373   2.3874   8.2741  10.4431  12.5706  14.2467

          k = 0.3750-0.1250 0.3750 (   633 PWs)   bands (ev):

    -2.5922   5.3199   8.2274  11.4423  13.8687  14.4235

          k = 0.2500 0.0000 0.2500 (   620 PWs)   bands (ev):

    -3.6919   8.6988   8.7082  12.3239  14.7029  14.9252

          k = 0.0000 0.5000 0.0000 (   632 PWs)   bands (ev):

    -2.8878   8.7771   8.8857   8.8857  10.3600  11.6091

          k =-0.1250 0.6250-0.1250 (   635 PWs)   bands (ev):

    -1.7923   5.9667   7.4668   8.4358  10.3233  12.4606

          k = 0.7500-0.2500 0.7500 (   643 PWs)   bands (ev):

    -0.1438   3.1217   6.1295   8.5129  10.3579  15.2111

          k = 0.6250-0.1250 0.6250 (   641 PWs)   bands (ev):

     0.4673   2.3438   5.3039   9.1096  10.9992  16.7945

          k = 0.5000 0.0000 0.5000 (   636 PWs)   bands (ev):

    -1.3077   4.9772   5.0810  10.1802  12.2152  16.3328

          k = 0.0000 0.7500 0.0000 (   632 PWs)   bands (ev):

    -0.8975   5.2119   7.8129   7.8129   9.1761   9.9609

          k = 0.8750-0.1250 0.8750 (   644 PWs)   bands (ev):

     0.5658   3.5940   5.4703   7.7199   9.4317  11.6996

          k = 0.7500 0.0000 0.7500 (   632 PWs)   bands (ev):

     2.0070   2.6787   3.3833   8.1595   9.9299  14.9246

          k = 0.0000-1.0000 0.0000 (   636 PWs)   bands (ev):

     1.7673   1.9078   7.4524   7.4524   8.7773   9.5003

          k =-0.2500 0.5000 0.0000 (   630 PWs)   bands (ev):

    -2.4903   6.8596   6.8693   9.7876  13.0942  13.4145

          k = 0.6250-0.3750 0.8750 (   640 PWs)   bands (ev):

    -1.0144   3.7962   6.7085   8.4268  13.0514  14.5565

          k = 0.5000-0.2500 0.7500 (   638 PWs)   bands (ev):

     0.6101   1.6275   6.8409   7.7611  13.1457  14.0536

          k = 0.7500-0.2500 1.0000 (   652 PWs)   bands (ev):

    -0.5122   5.1868   5.7271   6.4996  11.9922  12.2802

          k = 0.6250-0.1250 0.8750 (   643 PWs)   bands (ev):

     1.2545   3.0173   4.5491   6.2683  12.3857  15.0868

          k = 0.5000 0.0000 0.7500 (   643 PWs)   bands (ev):

     0.6112   3.8307   3.9435   7.0543  13.1342  16.0383

          k =-0.2500-1.0000 0.0000 (   642 PWs)   bands (ev):

     2.0795   2.2934   5.3476   5.7401  11.6184  11.9118

          k =-0.5000-1.0000 0.0000 (   648 PWs)   bands (ev):

     2.5771   3.4469   3.4469   4.5414  14.7989  15.6911

     the Fermi energy is     3.6630 ev

!    total energy              =     -12.41795730 Ry
     estimated scf accuracy    <          2.1E-09 Ry
     smearing contrib. (-TS)   =      -0.00022971 Ry
     internal energy E=F+TS    =     -12.41772760 Ry

     The total energy is F=E-TS. E is the sum of the following terms:
     one-electron contribution =       1.96093300 Ry
     hartree contribution      =       0.02517364 Ry
     xc contribution           =      -9.81897217 Ry
     ewald contribution        =      -4.58486207 Ry

     convergence has been achieved in   5 iterations

     Forces acting on atoms (cartesian axes, Ry/au):

     atom    1 type  1   force =     0.00000000    0.00000000    0.00000000

     Total force =     0.000000     Total SCF correction =     0.000000


     Computing stress (Cartesian axis) and pressure

          total   stress  (Ry/bohr**3)                   (kbar)     P=     -115.89
  -0.00078781  -0.00000000  -0.00000000         -115.89       -0.00       -0.00
  -0.00000000  -0.00078781   0.00000000           -0.00     -115.89        0.00
  -0.00000000   0.00000000  -0.00078781           -0.00        0.00     -115.89


     Writing all to output data dir /Users/zhy/Aluminum-from-First-Principles/convergence-runs/smearing/ecut-035.0-ry_k-08x08x08_degauss-0.020-ry/qe-out/aluminum_ecut-035p0-ry_k-08x08x08_degauss-0p020-ry.save/ :
     XML data file, charge density, pseudopotentials, collected wavefunctions

     init_run     :      0.30s CPU      0.31s WALL (       1 calls)
     electrons    :      0.36s CPU      0.38s WALL (       1 calls)
     forces       :      0.01s CPU      0.01s WALL (       1 calls)
     stress       :      0.02s CPU      0.02s WALL (       1 calls)

     Called by init_run:
     wfcinit      :      0.02s CPU      0.02s WALL (       1 calls)
     potinit      :      0.10s CPU      0.10s WALL (       1 calls)
     hinit0       :      0.17s CPU      0.17s WALL (       1 calls)

     Called by electrons:
     c_bands      :      0.27s CPU      0.29s WALL (       6 calls)
     sum_band     :      0.06s CPU      0.06s WALL (       6 calls)
     v_of_rho     :      0.03s CPU      0.03s WALL (       6 calls)
     newd         :      0.01s CPU      0.01s WALL (       6 calls)
     mix_rho      :      0.00s CPU      0.00s WALL (       6 calls)

     Called by c_bands:
     init_us_2    :      0.01s CPU      0.01s WALL (     435 calls)
     cegterg      :      0.27s CPU      0.28s WALL (     174 calls)

     Called by *egterg:
     cdiaghg      :      0.02s CPU      0.02s WALL (     660 calls)
     h_psi        :      0.24s CPU      0.25s WALL (     718 calls)
     s_psi        :      0.00s CPU      0.00s WALL (     718 calls)
     g_psi        :      0.00s CPU      0.00s WALL (     515 calls)

     Called by h_psi:
     h_psi:calbec :      0.00s CPU      0.00s WALL (     718 calls)
     vloc_psi     :      0.23s CPU      0.24s WALL (     718 calls)
     add_vuspsi   :      0.00s CPU      0.00s WALL (     718 calls)

     General routines
     calbec       :      0.01s CPU      0.01s WALL (    1385 calls)
     fft          :      0.16s CPU      0.16s WALL (     102 calls)
     ffts         :      0.10s CPU      0.10s WALL (      12 calls)
     fftw         :      0.25s CPU      0.26s WALL (    6952 calls)
     interpolate  :      0.10s CPU      0.10s WALL (       6 calls)

     Parallel routines

     PWSCF        :      0.71s CPU      0.74s WALL


   This run was terminated on:   1:27:56  23Sep2026            

=------------------------------------------------------------------------------=
   JOB DONE.
=------------------------------------------------------------------------------=
Note: The following floating-point exceptions are signalling: IEEE_INVALID_FLAG IEEE_DIVIDE_BY_ZERO IEEE_UNDERFLOW_FLAG
Note: The following floating-point exceptions are signalling: IEEE_UNDERFLOW_FLAG
