
     Program PWSCF v.7.6 starts on 26Sep2026 at  1:40:57 

     This program is part of the open-source Quantum ESPRESSO suite
     for quantum simulation of materials; please cite
         "P. Giannozzi et al., J. Phys.:Condens. Matter 21 395502 (2009);
         "P. Giannozzi et al., J. Phys.:Condens. Matter 29 465901 (2017);
         "P. Giannozzi et al., J. Chem. Phys. 152 154105 (2020);
          URL http://www.quantum-espresso.org", 
     in publications or presentations arising from this work. More details at
     http://www.quantum-espresso.org/quote

     Parallel version (MPI), running on     2 processors

     MPI processes distributed on     1 nodes
     0 MiB available memory on the printing compute node when the environment starts

     Reading input from Al.scf.inp

     Current dimensions of program PWSCF are:
     Max number of different atomic species (ntypx) = 10
     Max number of k-points (npk) =  40000
     Max angular momentum in pseudopotentials (lmaxx) =  4

     IMPORTANT: XC functional enforced from input :
     Exchange-correlation= PZ
                           (   1   1   0   0   0   0   0)
     Any further DFT definition will be discarded
     Please, verify this is what you really want


     R & G space division:  proc/nbgrp/npool/nimage =       2
     Subspace diagonalization in iterative solution of the eigenvalue problem:
     a serial algorithm will be used


     Parallelization info
     --------------------
     sticks:   dense  smooth     PW     G-vecs:    dense   smooth      PW
     Min         156     156     54                 1763     1763     362
     Max         157     157     55                 1764     1764     363
     Sum         313     313    109                 3527     3527     725

     Using Slab Decomposition



     bravais-lattice index     =            2
     lattice parameter (alat)  =       7.4625  a.u.
     unit-cell volume          =     103.8957 (a.u.)^3
     number of atoms/cell      =            1
     number of atomic types    =            1
     number of electrons       =         3.00
     number of Kohn-Sham states=            6
     kinetic-energy cutoff     =      40.0000  Ry
     charge density cutoff     =     160.0000  Ry
     scf convergence threshold =      1.0E-08
     mixing beta               =       0.7000
     number of iterations used =            8  plain     mixing
     Exchange-correlation= PZ
                           (   1   1   0   0   0   0   0)

     celldm(1)=   7.462526  celldm(2)=   0.000000  celldm(3)=   0.000000
     celldm(4)=   0.000000  celldm(5)=   0.000000  celldm(6)=   0.000000

     crystal axes: (cart. coord. in units of alat)
               a(1) = (  -0.500000   0.000000   0.500000 )  
               a(2) = (   0.000000   0.500000   0.500000 )  
               a(3) = (  -0.500000   0.500000   0.000000 )  

     reciprocal axes: (cart. coord. in units 2 pi/alat)
               b(1) = ( -1.000000 -1.000000  1.000000 )  
               b(2) = (  1.000000  1.000000  1.000000 )  
               b(3) = ( -1.000000  1.000000 -1.000000 )  


     PseudoPot. # 1 for Al read from file:
     /Users/zhy/Aluminum-from-First-Principles/Al.pz-vbc.UPF
     MD5 check sum: f06ceae8da0fe5c02c98e3688433298c
     Pseudo is Norm-conserving, Zval =  3.0
     Generated by new atomic code, or converted to UPF format
     Using radial grid of  171 points,  2 beta functions with: 
                l(1) =   0
                l(2) =   1

     atomic species   valence    mass     pseudopotential
     Al                3.00    26.98200     Al( 1.00)

     48 Sym. Ops., with inversion, found



   Cartesian axes

     site n.     atom                  positions (alat units)
         1        Al     tau(   1) = (   0.0000000   0.0000000   0.0000000  )

     number of k points=   256  Methfessel-Paxton smearing, width (Ry)=  0.0100

     Number of k-points >= 100: set verbosity='high' to print them.

     Dense  grid:     3527 G-vectors     FFT dimensions: (  24,  24,  24)

     Estimated max dynamical RAM per process >       6.62 MB

     Estimated total dynamical RAM >      13.24 MB

     Initial potential from superposition of free atoms

     starting charge       2.9979, renormalised to       3.0000

     negative rho (up, down):  2.476E-05 0.000E+00
     Starting wfcs are    4 randomized atomic wfcs +    2 random wfcs

     total cpu time spent up to now is        0.3 secs

     Self-consistent Calculation

     iteration #  1     ecut=    40.00 Ry     beta= 0.70
     Davidson diagonalization with overlap
     ethr =  1.00E-02,  avg # of iterations =  5.7

     Threshold (ethr) on eigenvalues was too large:
     Diagonalizing with lowered threshold

     Davidson diagonalization with overlap
     ethr =  1.93E-04,  avg # of iterations =  2.0

     negative rho (up, down):  5.399E-06 0.000E+00

     total cpu time spent up to now is        1.3 secs

     total energy              =      -4.19042133 Ry
     estimated scf accuracy    <       0.00576341 Ry

     iteration #  2     ecut=    40.00 Ry     beta= 0.70
     Davidson diagonalization with overlap
     ethr =  1.92E-04,  avg # of iterations =  1.0

     total cpu time spent up to now is        1.7 secs

     total energy              =      -4.19046054 Ry
     estimated scf accuracy    <       0.00044446 Ry

     iteration #  3     ecut=    40.00 Ry     beta= 0.70
     Davidson diagonalization with overlap
     ethr =  1.48E-05,  avg # of iterations =  1.9

     total cpu time spent up to now is        2.0 secs

     total energy              =      -4.19046384 Ry
     estimated scf accuracy    <       0.00000032 Ry

     iteration #  4     ecut=    40.00 Ry     beta= 0.70
     Davidson diagonalization with overlap
     c_bands:  1 eigenvalues not converged
     ethr =  1.06E-08,  avg # of iterations =  2.4

     total cpu time spent up to now is        2.4 secs

     End of self-consistent calculation

     Number of k-points >= 100: set verbosity='high' to print the bands.

     the Fermi energy is     8.4912 ev

!    total energy              =      -4.19046388 Ry
     estimated scf accuracy    <          6.0E-09 Ry
     smearing contrib. (-TS)   =      -0.00002866 Ry
     internal energy E=F+TS    =      -4.19043521 Ry

     The total energy is F=E-TS. E is the sum of the following terms:
     one-electron contribution =       2.97134582 Ry
     hartree contribution      =       0.01001559 Ry
     xc contribution           =      -1.64233398 Ry
     ewald contribution        =      -5.52946264 Ry

     convergence has been achieved in   4 iterations

     Forces acting on atoms (cartesian axes, Ry/au):

     atom    1 type  1   force =     0.00000000    0.00000000    0.00000000

     Total force =     0.000000     Total SCF correction =     0.000000


     Computing stress (Cartesian axis) and pressure

          total   stress  (Ry/bohr**3)                   (kbar)     P=        3.54
   0.00002406   0.00000000   0.00000000            3.54        0.00        0.00
   0.00000000   0.00002406  -0.00000000            0.00        3.54       -0.00
   0.00000000  -0.00000000   0.00002406            0.00       -0.00        3.54


     Writing all to output data dir /Users/zhy/Aluminum-from-First-Principles/lda-eos-runs/scale-0.9958_volume-0103.8957-bohr3/qe-out/aluminum_lda_eos_scale-0p9958_volume-0103p8957-bohr3.save/ :
     XML data file, charge density, pseudopotentials, collected wavefunctions

     init_run     :      0.23s CPU      0.24s WALL (       1 calls)
     electrons    :      2.07s CPU      2.14s WALL (       1 calls)
     forces       :      0.01s CPU      0.01s WALL (       1 calls)
     stress       :      0.05s CPU      0.05s WALL (       1 calls)

     Called by init_run:
     wfcinit      :      0.13s CPU      0.14s WALL (       1 calls)
     potinit      :      0.00s CPU      0.00s WALL (       1 calls)
     hinit0       :      0.10s CPU      0.10s WALL (       1 calls)

     Called by electrons:
     c_bands      :      1.75s CPU      1.81s WALL (       5 calls)
     sum_band     :      0.31s CPU      0.32s WALL (       5 calls)
     v_of_rho     :      0.00s CPU      0.00s WALL (       5 calls)
     mix_rho      :      0.00s CPU      0.00s WALL (       5 calls)

     Called by c_bands:
     init_us_2    :      0.04s CPU      0.04s WALL (    3328 calls)
     cegterg      :      1.72s CPU      1.78s WALL (    1280 calls)

     Called by *egterg:
     cdiaghg      :      0.09s CPU      0.09s WALL (    4354 calls)
     h_psi        :      1.65s CPU      1.70s WALL (    4866 calls)
     g_psi        :      0.00s CPU      0.00s WALL (    3330 calls)

     Called by h_psi:
     h_psi:calbec :      0.02s CPU      0.02s WALL (    4866 calls)
     vloc_psi     :      1.62s CPU      1.66s WALL (    4866 calls)
     add_vuspsi   :      0.01s CPU      0.01s WALL (    4866 calls)

     General routines
     calbec       :      0.03s CPU      0.03s WALL (    9218 calls)
     fft          :      0.09s CPU      0.10s WALL (      20 calls)
     ffts         :      0.00s CPU      0.00s WALL (       5 calls)
     fftw         :      1.71s CPU      1.74s WALL (   51570 calls)

     Parallel routines

     PWSCF        :      2.42s CPU      2.52s WALL


   This run was terminated on:   1:41: 0  26Sep2026            

=------------------------------------------------------------------------------=
   JOB DONE.
=------------------------------------------------------------------------------=
Note: The following floating-point exceptions are signalling: IEEE_INVALID_FLAG IEEE_DIVIDE_BY_ZERO IEEE_UNDERFLOW_FLAG
Note: The following floating-point exceptions are signalling: IEEE_UNDERFLOW_FLAG
