
     Program PWSCF v.7.6 starts on 23Sep2026 at  1:27:50 

     This program is part of the open-source Quantum ESPRESSO suite
     for quantum simulation of materials; please cite
         "P. Giannozzi et al., J. Phys.:Condens. Matter 21 395502 (2009);
         "P. Giannozzi et al., J. Phys.:Condens. Matter 29 465901 (2017);
         "P. Giannozzi et al., J. Chem. Phys. 152 154105 (2020);
          URL http://www.quantum-espresso.org", 
     in publications or presentations arising from this work. More details at
     http://www.quantum-espresso.org/quote

     Parallel version (MPI), running on     2 processors

     MPI processes distributed on     1 nodes
     0 MiB available memory on the printing compute node when the environment starts

     Reading input from Al.scf.inp

     Current dimensions of program PWSCF are:
     Max number of different atomic species (ntypx) = 10
     Max number of k-points (npk) =  40000
     Max angular momentum in pseudopotentials (lmaxx) =  4

     R & G space division:  proc/nbgrp/npool/nimage =       2
     Subspace diagonalization in iterative solution of the eigenvalue problem:
     a serial algorithm will be used


     Parallelization info
     --------------------
     sticks:   dense  smooth     PW     G-vecs:    dense   smooth      PW
     Min         384     189     60                 7164     2513     469
     Max         385     190     61                 7167     2516     472
     Sum         769     379    121                14331     5029     941

     Using Slab Decomposition



     bravais-lattice index     =            2
     lattice parameter (alat)  =       9.0000  a.u.
     unit-cell volume          =     182.2500 (a.u.)^3
     number of atoms/cell      =            1
     number of atomic types    =            1
     number of electrons       =         3.00
     number of Kohn-Sham states=            6
     kinetic-energy cutoff     =      35.0000  Ry
     charge density cutoff     =     280.0000  Ry
     scf convergence threshold =      1.0E-08
     mixing beta               =       0.7000
     number of iterations used =            8  plain     mixing
     Exchange-correlation= SLA  PW   PBE  PBE
                           (   1   4   3   4   0   0   0)

     celldm(1)=   9.000000  celldm(2)=   0.000000  celldm(3)=   0.000000
     celldm(4)=   0.000000  celldm(5)=   0.000000  celldm(6)=   0.000000

     crystal axes: (cart. coord. in units of alat)
               a(1) = (  -0.500000   0.000000   0.500000 )  
               a(2) = (   0.000000   0.500000   0.500000 )  
               a(3) = (  -0.500000   0.500000   0.000000 )  

     reciprocal axes: (cart. coord. in units 2 pi/alat)
               b(1) = ( -1.000000 -1.000000  1.000000 )  
               b(2) = (  1.000000  1.000000  1.000000 )  
               b(3) = ( -1.000000  1.000000 -1.000000 )  


     PseudoPot. # 1 for Al read from file:
     /Users/zhy/Aluminum-from-First-Principles/Al.pbe-n-van.UPF
     MD5 check sum: cbc97ad259b400557db688b98a6ada97
     Pseudo is Ultrasoft + core correction, Zval =  3.0
     Generated by new atomic code, or converted to UPF format
     Using radial grid of  893 points,  2 beta functions with: 
                l(1) =   0
                l(2) =   1
     Q(r) pseudized with  8 coefficients,  rinner =    0.900   0.900   0.900


     atomic species   valence    mass     pseudopotential
     Al                3.00    26.98200     Al( 1.00)

     48 Sym. Ops., with inversion, found



   Cartesian axes

     site n.     atom                  positions (alat units)
         1        Al     tau(   1) = (   0.0000000   0.0000000   0.0000000  )

     number of k points=    72  Methfessel-Paxton smearing, width (Ry)=  0.0500
                       cart. coord. in units 2pi/alat
        k(    1) = (   0.0000000   0.0000000   0.0000000), wk =   0.0011574
        k(    2) = (  -0.0833333   0.0833333  -0.0833333), wk =   0.0092593
        k(    3) = (  -0.1666667   0.1666667  -0.1666667), wk =   0.0092593
        k(    4) = (  -0.2500000   0.2500000  -0.2500000), wk =   0.0092593
        k(    5) = (  -0.3333333   0.3333333  -0.3333333), wk =   0.0092593
        k(    6) = (  -0.4166667   0.4166667  -0.4166667), wk =   0.0092593
        k(    7) = (   0.5000000  -0.5000000   0.5000000), wk =   0.0046296
        k(    8) = (   0.0000000   0.1666667   0.0000000), wk =   0.0069444
        k(    9) = (  -0.0833333   0.2500000  -0.0833333), wk =   0.0277778
        k(   10) = (  -0.1666667   0.3333333  -0.1666667), wk =   0.0277778
        k(   11) = (  -0.2500000   0.4166667  -0.2500000), wk =   0.0277778
        k(   12) = (  -0.3333333   0.5000000  -0.3333333), wk =   0.0277778
        k(   13) = (   0.5833333  -0.4166667   0.5833333), wk =   0.0277778
        k(   14) = (   0.5000000  -0.3333333   0.5000000), wk =   0.0277778
        k(   15) = (   0.4166667  -0.2500000   0.4166667), wk =   0.0277778
        k(   16) = (   0.3333333  -0.1666667   0.3333333), wk =   0.0277778
        k(   17) = (   0.2500000  -0.0833333   0.2500000), wk =   0.0277778
        k(   18) = (   0.1666667  -0.0000000   0.1666667), wk =   0.0138889
        k(   19) = (   0.0000000   0.3333333   0.0000000), wk =   0.0069444
        k(   20) = (  -0.0833333   0.4166667  -0.0833333), wk =   0.0277778
        k(   21) = (  -0.1666667   0.5000000  -0.1666667), wk =   0.0277778
        k(   22) = (  -0.2500000   0.5833333  -0.2500000), wk =   0.0277778
        k(   23) = (   0.6666667  -0.3333333   0.6666667), wk =   0.0277778
        k(   24) = (   0.5833333  -0.2500000   0.5833333), wk =   0.0277778
        k(   25) = (   0.5000000  -0.1666667   0.5000000), wk =   0.0277778
        k(   26) = (   0.4166667  -0.0833333   0.4166667), wk =   0.0277778
        k(   27) = (   0.3333333   0.0000000   0.3333333), wk =   0.0138889
        k(   28) = (   0.0000000   0.5000000   0.0000000), wk =   0.0069444
        k(   29) = (  -0.0833333   0.5833333  -0.0833333), wk =   0.0277778
        k(   30) = (  -0.1666667   0.6666667  -0.1666667), wk =   0.0277778
        k(   31) = (   0.7500000  -0.2500000   0.7500000), wk =   0.0277778
        k(   32) = (   0.6666667  -0.1666667   0.6666667), wk =   0.0277778
        k(   33) = (   0.5833333  -0.0833333   0.5833333), wk =   0.0277778
        k(   34) = (   0.5000000   0.0000000   0.5000000), wk =   0.0138889
        k(   35) = (   0.0000000   0.6666667   0.0000000), wk =   0.0069444
        k(   36) = (  -0.0833333   0.7500000  -0.0833333), wk =   0.0277778
        k(   37) = (   0.8333333  -0.1666667   0.8333333), wk =   0.0277778
        k(   38) = (   0.7500000  -0.0833333   0.7500000), wk =   0.0277778
        k(   39) = (   0.6666667   0.0000000   0.6666667), wk =   0.0138889
        k(   40) = (   0.0000000   0.8333333   0.0000000), wk =   0.0069444
        k(   41) = (   0.9166667  -0.0833333   0.9166667), wk =   0.0277778
        k(   42) = (   0.8333333   0.0000000   0.8333333), wk =   0.0138889
        k(   43) = (   0.0000000  -1.0000000   0.0000000), wk =   0.0034722
        k(   44) = (  -0.1666667   0.3333333   0.0000000), wk =   0.0277778
        k(   45) = (  -0.2500000   0.4166667  -0.0833333), wk =   0.0555556
        k(   46) = (  -0.3333333   0.5000000  -0.1666667), wk =   0.0555556
        k(   47) = (   0.5833333  -0.4166667   0.7500000), wk =   0.0555556
        k(   48) = (   0.5000000  -0.3333333   0.6666667), wk =   0.0277778
        k(   49) = (  -0.1666667   0.5000000   0.0000000), wk =   0.0277778
        k(   50) = (  -0.2500000   0.5833333  -0.0833333), wk =   0.0555556
        k(   51) = (   0.6666667  -0.3333333   0.8333333), wk =   0.0555556
        k(   52) = (   0.5833333  -0.2500000   0.7500000), wk =   0.0555556
        k(   53) = (   0.5000000  -0.1666667   0.6666667), wk =   0.0555556
        k(   54) = (   0.4166667  -0.0833333   0.5833333), wk =   0.0555556
        k(   55) = (   0.3333333   0.0000000   0.5000000), wk =   0.0277778
        k(   56) = (  -0.1666667   0.6666667  -0.0000000), wk =   0.0277778
        k(   57) = (   0.7500000  -0.2500000   0.9166667), wk =   0.0555556
        k(   58) = (   0.6666667  -0.1666667   0.8333333), wk =   0.0555556
        k(   59) = (   0.5833333  -0.0833333   0.7500000), wk =   0.0555556
        k(   60) = (   0.5000000   0.0000000   0.6666667), wk =   0.0277778
        k(   61) = (   0.8333333  -0.1666667   1.0000000), wk =   0.0277778
        k(   62) = (   0.7500000  -0.0833333   0.9166667), wk =   0.0555556
        k(   63) = (   0.6666667   0.0000000   0.8333333), wk =   0.0277778
        k(   64) = (  -0.1666667  -1.0000000   0.0000000), wk =   0.0138889
        k(   65) = (   0.6666667  -0.3333333   1.0000000), wk =   0.0277778
        k(   66) = (   0.5833333  -0.2500000   0.9166667), wk =   0.0555556
        k(   67) = (   0.5000000  -0.1666667   0.8333333), wk =   0.0277778
        k(   68) = (   0.6666667  -0.1666667   1.0000000), wk =   0.0277778
        k(   69) = (   0.5833333  -0.0833333   0.9166667), wk =   0.0555556
        k(   70) = (   0.5000000   0.0000000   0.8333333), wk =   0.0277778
        k(   71) = (  -0.3333333  -1.0000000   0.0000000), wk =   0.0138889
        k(   72) = (  -0.5000000  -1.0000000   0.0000000), wk =   0.0069444

     Dense  grid:    14331 G-vectors     FFT dimensions: (  36,  36,  36)

     Smooth grid:     5029 G-vectors     FFT dimensions: (  24,  24,  24)

     Estimated max dynamical RAM per process >       9.43 MB

     Estimated total dynamical RAM >      18.86 MB

     Initial potential from superposition of free atoms

     starting charge       2.9975, renormalised to       3.0000
     Starting wfcs are    4 randomized atomic wfcs +    2 random wfcs

     total cpu time spent up to now is        0.4 secs

     Self-consistent Calculation

     iteration #  1     ecut=    35.00 Ry     beta= 0.70
     Davidson diagonalization with overlap
     ethr =  1.00E-02,  avg # of iterations =  5.3

     Threshold (ethr) on eigenvalues was too large:
     Diagonalizing with lowered threshold

     Davidson diagonalization with overlap
     ethr =  1.79E-04,  avg # of iterations =  2.8

     total cpu time spent up to now is        0.7 secs

     total energy              =     -12.41932565 Ry
     estimated scf accuracy    <       0.00521886 Ry

     iteration #  2     ecut=    35.00 Ry     beta= 0.70
     Davidson diagonalization with overlap
     ethr =  1.74E-04,  avg # of iterations =  1.0

     total cpu time spent up to now is        0.8 secs

     total energy              =     -12.41944963 Ry
     estimated scf accuracy    <       0.00024464 Ry

     iteration #  3     ecut=    35.00 Ry     beta= 0.70
     Davidson diagonalization with overlap
     c_bands:  1 eigenvalues not converged
     ethr =  8.15E-06,  avg # of iterations =  4.1

     total cpu time spent up to now is        1.0 secs

     total energy              =     -12.41948354 Ry
     estimated scf accuracy    <       0.00000110 Ry

     iteration #  4     ecut=    35.00 Ry     beta= 0.70
     Davidson diagonalization with overlap
     ethr =  3.67E-08,  avg # of iterations =  3.2

     total cpu time spent up to now is        1.1 secs

     total energy              =     -12.41948491 Ry
     estimated scf accuracy    <       0.00000007 Ry

     iteration #  5     ecut=    35.00 Ry     beta= 0.70
     Davidson diagonalization with overlap
     ethr =  2.27E-09,  avg # of iterations =  1.4

     total cpu time spent up to now is        1.2 secs

     End of self-consistent calculation

          k = 0.0000 0.0000 0.0000 (   609 PWs)   bands (ev):

    -4.4990  12.4175  12.4175  12.4175  13.9207  13.9208

          k =-0.0833 0.0833-0.0833 (   624 PWs)   bands (ev):

    -4.3642  10.8495  12.0597  12.0597  14.2084  14.4301

          k =-0.1667 0.1667-0.1667 (   637 PWs)   bands (ev):

    -3.9607   8.4859  11.5369  11.5369  14.0444  15.1134

          k =-0.2500 0.2500-0.2500 (   631 PWs)   bands (ev):

    -3.2914   6.1689  11.1491  11.1491  13.7979  14.7248

          k =-0.3333 0.3333-0.3333 (   613 PWs)   bands (ev):

    -2.3636   4.0301  10.9290  10.9290  13.6524  13.9382

          k =-0.4167 0.4167-0.4167 (   628 PWs)   bands (ev):

    -1.2017   2.1315  10.8435  10.8435  13.3570  13.3570

          k = 0.5000-0.5000 0.5000 (   628 PWs)   bands (ev):

    -0.1830   0.8660  10.8288  10.8288  13.1442  13.6216

          k = 0.0000 0.1667 0.0000 (   625 PWs)   bands (ev):

    -4.3193  11.3264  11.3264  11.8720  12.9727  15.2336

          k =-0.0833 0.2500-0.0833 (   632 PWs)   bands (ev):

    -4.0053   9.3604  10.6941  11.5730  13.1694  15.4122

          k =-0.1667 0.3333-0.1667 (   626 PWs)   bands (ev):

    -3.4244   7.0278  10.2578  11.0698  13.2995  14.9387

          k =-0.2500 0.4167-0.2500 (   630 PWs)   bands (ev):

    -2.5821   4.8286  10.0376  10.5986  12.7126  14.8557

          k =-0.3333 0.5000-0.3333 (   632 PWs)   bands (ev):

    -1.4931   2.8450  10.0347  10.1359  12.3613  14.5383

          k = 0.5833-0.4167 0.5833 (   633 PWs)   bands (ev):

    -0.2710   1.2129   9.7041  10.2360  12.4151  13.9707

          k = 0.5000-0.3333 0.5000 (   629 PWs)   bands (ev):

    -0.6645   1.6887   9.3891  10.6121  12.8201  13.6805

          k = 0.4167-0.2500 0.4167 (   627 PWs)   bands (ev):

    -1.8817   3.4792   9.2547  11.1055  13.5064  13.7223

          k = 0.3333-0.1667 0.3333 (   627 PWs)   bands (ev):

    -2.8916   5.5418   9.3323  11.6390  14.1277  14.3436

          k = 0.2500-0.0833 0.2500 (   631 PWs)   bands (ev):

    -3.6476   7.8001   9.6322  12.1476  14.6094  14.6216

          k = 0.1667-0.0000 0.1667 (   630 PWs)   bands (ev):

    -4.1398  10.1147  10.1866  12.4552  14.2686  14.4970

          k = 0.0000 0.3333 0.0000 (   637 PWs)   bands (ev):

    -3.7811   9.9793   9.9793  10.6067  11.5559  13.8408

          k =-0.0833 0.4167-0.0833 (   627 PWs)   bands (ev):

    -3.2897   8.0682   9.4706  10.0895  11.7070  13.0815

          k =-0.1667 0.5000-0.1667 (   630 PWs)   bands (ev):

    -2.5351   5.8548   9.1869   9.3266  11.4045  14.1006

          k =-0.2500 0.5833-0.2500 (   632 PWs)   bands (ev):

    -1.5270   3.8086   8.5505   9.1335  11.1810  15.5524

          k = 0.6667-0.3333 0.6667 (   640 PWs)   bands (ev):

    -0.3114   2.0260   7.8854   9.3087  11.2894  15.5960

          k = 0.5833-0.2500 0.5833 (   641 PWs)   bands (ev):

     0.0799   1.5543   7.4068   9.7044  11.6978  15.1417

          k = 0.5000-0.1667 0.5000 (   631 PWs)   bands (ev):

    -1.1414   3.1843   7.1490  10.3020  12.3759  14.9377

          k = 0.4167-0.0833 0.4167 (   635 PWs)   bands (ev):

    -2.2280   5.1595   7.1260  11.0556  13.2921  15.0084

          k = 0.3333 0.0000 0.3333 (   630 PWs)   bands (ev):

    -3.0683   7.3218   7.3643  11.8324  14.3780  15.3080

          k = 0.0000 0.5000 0.0000 (   632 PWs)   bands (ev):

    -2.8880   8.7768   8.8855   8.8855  10.3599  11.6086

          k =-0.0833 0.5833-0.0833 (   635 PWs)   bands (ev):

    -2.2224   6.9788   8.0046   8.5272  10.4056  11.7424

          k =-0.1667 0.6667-0.1667 (   634 PWs)   bands (ev):

    -1.2999   4.9707   6.9693   8.4028  10.2699  13.3189

          k = 0.7500-0.2500 0.7500 (   643 PWs)   bands (ev):

    -0.1440   3.1215   6.1293   8.5127  10.3576  15.2108

          k = 0.6667-0.1667 0.6667 (   641 PWs)   bands (ev):

     0.8704   1.8763   5.5186   8.8543  10.7186  17.0024

          k = 0.5833-0.0833 0.5833 (   639 PWs)   bands (ev):

    -0.1551   3.1495   5.1507   9.4185  11.3436  16.6488

          k = 0.5000 0.0000 0.5000 (   636 PWs)   bands (ev):

    -1.3079   4.9771   5.0807  10.1799  12.2149  16.3325

          k = 0.0000 0.6667 0.0000 (   640 PWs)   bands (ev):

    -1.6464   6.4264   8.0920   8.0920   9.4848  10.3412

          k =-0.0833 0.7500-0.0833 (   640 PWs)   bands (ev):

    -0.8119   5.2285   6.6273   7.8911   9.6119  10.9991

          k = 0.8333-0.1667 0.8333 (   640 PWs)   bands (ev):

     0.2667   4.0497   4.9690   7.9269   9.6779  12.8411

          k = 0.7500-0.0833 0.7500 (   644 PWs)   bands (ev):

     1.4748   2.7621   3.9480   8.1987   9.9764  14.9576

          k = 0.6667 0.0000 0.6667 (   650 PWs)   bands (ev):

     1.0296   3.2766   3.4960   8.7005  10.5340  17.1267

          k = 0.0000 0.8333 0.0000 (   636 PWs)   bands (ev):

    -0.0663   4.0295   7.6126   7.6126   8.9547   9.7012

          k = 0.9167-0.0833 0.9167 (   640 PWs)   bands (ev):

     0.9268   2.9748   6.2288   7.5712   9.2338  10.6441

          k = 0.8333 0.0000 0.8333 (   640 PWs)   bands (ev):

     2.0214   2.2505   4.5472   7.7676   9.4880  12.6809

          k = 0.0000-1.0000 0.0000 (   636 PWs)   bands (ev):

     1.7669   1.9077   7.4522   7.4522   8.7773   9.4996

          k =-0.1667 0.3333 0.0000 (   630 PWs)   bands (ev):

    -3.6026   8.7456   8.7731  11.5753  13.0619  14.3368

          k =-0.2500 0.4167-0.0833 (   632 PWs)   bands (ev):

    -2.9347   6.4850   8.3787  10.9270  13.1120  14.5715

          k =-0.3333 0.5000-0.1667 (   631 PWs)   bands (ev):

    -2.0088   4.3616   8.2222  10.1316  12.8360  14.5619

          k = 0.5833-0.4167 0.7500 (   637 PWs)   bands (ev):

    -0.8490   2.4707   8.2624   9.4657  12.7953  13.9389

          k = 0.5000-0.3333 0.6667 (   636 PWs)   bands (ev):

     0.1709   1.2057   8.3522   9.1602  12.8559  13.6402

          k =-0.1667 0.5000 0.0000 (   630 PWs)   bands (ev):

    -2.7112   7.5603   7.6275   9.5356  11.9341  12.5576

          k =-0.2500 0.5833-0.0833 (   632 PWs)   bands (ev):

    -1.8723   5.4630   7.3151   8.6022  11.9589  13.7304

          k = 0.6667-0.3333 0.8333 (   638 PWs)   bands (ev):

    -0.7875   3.5081   7.0890   7.9693  11.9622  15.1926

          k = 0.5833-0.2500 0.7500 (   643 PWs)   bands (ev):

     0.4324   1.8877   6.6748   7.9786  12.2076  15.0285

          k = 0.5000-0.1667 0.6667 (   645 PWs)   bands (ev):

     0.0352   2.3679   6.3000   8.4227  12.6805  14.6875

          k = 0.4167-0.0833 0.5833 (   638 PWs)   bands (ev):

    -1.1774   4.1460   6.1252   9.1362  13.3255  14.5790

          k = 0.3333 0.0000 0.5000 (   637 PWs)   bands (ev):

    -2.1824   6.1547   6.2124  10.0444  13.9408  14.3415

          k =-0.1667 0.6667-0.0000 (   641 PWs)   bands (ev):

    -1.4724   6.2589   6.7974   7.4703  11.1027  11.5603

          k = 0.7500-0.2500 0.9167 (   646 PWs)   bands (ev):

    -0.4708   4.6741   5.8044   7.0236  11.2570  13.1136

          k = 0.6667-0.1667 0.8333 (   642 PWs)   bands (ev):

     0.7376   2.9891   5.0241   7.1449  11.4561  15.0910

          k = 0.5833-0.0833 0.7500 (   645 PWs)   bands (ev):

     1.1090   2.5626   4.4821   7.5658  11.8924  16.4235

          k = 0.5000 0.0000 0.6667 (   643 PWs)   bands (ev):

    -0.1030   4.1285   4.2435   8.2405  12.5511  16.3083

          k = 0.8333-0.1667 1.0000 (   644 PWs)   bands (ev):

     0.1022   4.1471   6.2961   6.6310  10.5978  11.0169

          k = 0.7500-0.0833 0.9167 (   643 PWs)   bands (ev):

     1.2453   3.2214   4.6975   6.5921  10.9129  12.7982

          k = 0.6667 0.0000 0.8333 (   647 PWs)   bands (ev):

     2.0887   2.7640   3.4530   6.9505  11.2879  14.9807

          k =-0.1667-1.0000 0.0000 (   648 PWs)   bands (ev):

     1.9103   2.0791   6.1286   6.4214  10.4284  10.8399

          k = 0.6667-0.3333 1.0000 (   641 PWs)   bands (ev):

    -0.9537   5.3004   5.3121   7.5557  13.5499  13.5745

          k = 0.5833-0.2500 0.9167 (   645 PWs)   bands (ev):

     0.1973   3.4624   5.3531   6.7596  13.5807  14.7280

          k = 0.5000-0.1667 0.8333 (   648 PWs)   bands (ev):

     1.2160   2.2081   5.4464   6.4151  13.6425  14.6078

          k = 0.6667-0.1667 1.0000 (   646 PWs)   bands (ev):

     0.5998   4.2732   4.8041   5.6293  13.0638  13.1916

          k = 0.5833-0.0833 0.9167 (   642 PWs)   bands (ev):

     1.7996   3.1046   4.1282   5.4614  13.3763  15.1186

          k = 0.5000 0.0000 0.8333 (   642 PWs)   bands (ev):

     1.3788   3.6175   3.7193   5.9355  13.7935  15.9593

          k =-0.3333-1.0000 0.0000 (   642 PWs)   bands (ev):

     2.2885   2.5929   4.6346   5.1451  12.9004  13.0515

          k =-0.5000-1.0000 0.0000 (   648 PWs)   bands (ev):

     2.5768   3.4468   3.4468   4.5410  14.7987  15.6910

     the Fermi energy is     3.6013 ev

!    total energy              =     -12.41948491 Ry
     estimated scf accuracy    <          1.8E-09 Ry
     smearing contrib. (-TS)   =       0.00010166 Ry
     internal energy E=F+TS    =     -12.41958658 Ry

     The total energy is F=E-TS. E is the sum of the following terms:
     one-electron contribution =       1.95911022 Ry
     hartree contribution      =       0.02509757 Ry
     xc contribution           =      -9.81893230 Ry
     ewald contribution        =      -4.58486207 Ry

     convergence has been achieved in   5 iterations

     Forces acting on atoms (cartesian axes, Ry/au):

     atom    1 type  1   force =     0.00000000    0.00000000    0.00000000

     Total force =     0.000000     Total SCF correction =     0.000000


     Computing stress (Cartesian axis) and pressure

          total   stress  (Ry/bohr**3)                   (kbar)     P=     -116.61
  -0.00079270   0.00000000   0.00000000         -116.61        0.00        0.00
  -0.00000000  -0.00079270  -0.00000000           -0.00     -116.61       -0.00
   0.00000000  -0.00000000  -0.00079270            0.00       -0.00     -116.61


     Writing all to output data dir /Users/zhy/Aluminum-from-First-Principles/convergence-runs/smearing/ecut-035.0-ry_k-12x12x12_degauss-0.050-ry/qe-out/aluminum_ecut-035p0-ry_k-12x12x12_degauss-0p050-ry.save/ :
     XML data file, charge density, pseudopotentials, collected wavefunctions

     init_run     :      0.33s CPU      0.34s WALL (       1 calls)
     electrons    :      0.83s CPU      0.87s WALL (       1 calls)
     forces       :      0.01s CPU      0.01s WALL (       1 calls)
     stress       :      0.04s CPU      0.04s WALL (       1 calls)

     Called by init_run:
     wfcinit      :      0.04s CPU      0.04s WALL (       1 calls)
     potinit      :      0.10s CPU      0.11s WALL (       1 calls)
     hinit0       :      0.17s CPU      0.17s WALL (       1 calls)

     Called by electrons:
     c_bands      :      0.67s CPU      0.71s WALL (       6 calls)
     sum_band     :      0.13s CPU      0.13s WALL (       6 calls)
     v_of_rho     :      0.03s CPU      0.03s WALL (       6 calls)
     newd         :      0.01s CPU      0.01s WALL (       6 calls)
     mix_rho      :      0.00s CPU      0.00s WALL (       6 calls)

     Called by c_bands:
     init_us_2    :      0.02s CPU      0.02s WALL (    1080 calls)
     cegterg      :      0.66s CPU      0.69s WALL (     432 calls)

     Called by *egterg:
     cdiaghg      :      0.04s CPU      0.04s WALL (    1646 calls)
     h_psi        :      0.59s CPU      0.62s WALL (    1790 calls)
     s_psi        :      0.00s CPU      0.01s WALL (    1790 calls)
     g_psi        :      0.00s CPU      0.00s WALL (    1286 calls)

     Called by h_psi:
     h_psi:calbec :      0.01s CPU      0.01s WALL (    1790 calls)
     vloc_psi     :      0.58s CPU      0.60s WALL (    1790 calls)
     add_vuspsi   :      0.00s CPU      0.01s WALL (    1790 calls)

     General routines
     calbec       :      0.02s CPU      0.02s WALL (    3446 calls)
     fft          :      0.16s CPU      0.16s WALL (     102 calls)
     ffts         :      0.10s CPU      0.10s WALL (      12 calls)
     fftw         :      0.61s CPU      0.63s WALL (   17340 calls)
     interpolate  :      0.10s CPU      0.10s WALL (       6 calls)

     Parallel routines

     PWSCF        :      1.22s CPU      1.29s WALL


   This run was terminated on:   1:27:51  23Sep2026            

=------------------------------------------------------------------------------=
   JOB DONE.
=------------------------------------------------------------------------------=
Note: The following floating-point exceptions are signalling: IEEE_UNDERFLOW_FLAG
Note: The following floating-point exceptions are signalling: IEEE_INVALID_FLAG IEEE_DIVIDE_BY_ZERO IEEE_UNDERFLOW_FLAG
