
     Program PWSCF v.7.6 starts on 24Sep2026 at 14:58:18 

     This program is part of the open-source Quantum ESPRESSO suite
     for quantum simulation of materials; please cite
         "P. Giannozzi et al., J. Phys.:Condens. Matter 21 395502 (2009);
         "P. Giannozzi et al., J. Phys.:Condens. Matter 29 465901 (2017);
         "P. Giannozzi et al., J. Chem. Phys. 152 154105 (2020);
          URL http://www.quantum-espresso.org", 
     in publications or presentations arising from this work. More details at
     http://www.quantum-espresso.org/quote

     Parallel version (MPI), running on     2 processors

     MPI processes distributed on     1 nodes
     0 MiB available memory on the printing compute node when the environment starts

     Reading input from Al.scf.inp

     Current dimensions of program PWSCF are:
     Max number of different atomic species (ntypx) = 10
     Max number of k-points (npk) =  40000
     Max angular momentum in pseudopotentials (lmaxx) =  4

     R & G space division:  proc/nbgrp/npool/nimage =       2
     Subspace diagonalization in iterative solution of the eigenvalue problem:
     a serial algorithm will be used


     Parallelization info
     --------------------
     sticks:   dense  smooth     PW     G-vecs:    dense   smooth      PW
     Min         279     141     48                 4399     1559     322
     Max         280     142     49                 4402     1560     323
     Sum         559     283     97                 8801     3119     645

     Using Slab Decomposition



     bravais-lattice index     =            2
     lattice parameter (alat)  =       7.6142  a.u.
     unit-cell volume          =     110.3610 (a.u.)^3
     number of atoms/cell      =            1
     number of atomic types    =            1
     number of electrons       =         3.00
     number of Kohn-Sham states=            6
     kinetic-energy cutoff     =      35.0000  Ry
     charge density cutoff     =     280.0000  Ry
     scf convergence threshold =      1.0E-08
     mixing beta               =       0.7000
     number of iterations used =            8  plain     mixing
     Exchange-correlation= SLA  PW   PBE  PBE
                           (   1   4   3   4   0   0   0)

     celldm(1)=   7.614217  celldm(2)=   0.000000  celldm(3)=   0.000000
     celldm(4)=   0.000000  celldm(5)=   0.000000  celldm(6)=   0.000000

     crystal axes: (cart. coord. in units of alat)
               a(1) = (  -0.500000   0.000000   0.500000 )  
               a(2) = (   0.000000   0.500000   0.500000 )  
               a(3) = (  -0.500000   0.500000   0.000000 )  

     reciprocal axes: (cart. coord. in units 2 pi/alat)
               b(1) = ( -1.000000 -1.000000  1.000000 )  
               b(2) = (  1.000000  1.000000  1.000000 )  
               b(3) = ( -1.000000  1.000000 -1.000000 )  


     PseudoPot. # 1 for Al read from file:
     /Users/zhy/Aluminum-from-First-Principles/Al.pbe-n-van.UPF
     MD5 check sum: cbc97ad259b400557db688b98a6ada97
     Pseudo is Ultrasoft + core correction, Zval =  3.0
     Generated by new atomic code, or converted to UPF format
     Using radial grid of  893 points,  2 beta functions with: 
                l(1) =   0
                l(2) =   1
     Q(r) pseudized with  8 coefficients,  rinner =    0.900   0.900   0.900


     atomic species   valence    mass     pseudopotential
     Al                3.00    26.98200     Al( 1.00)

     48 Sym. Ops., with inversion, found



   Cartesian axes

     site n.     atom                  positions (alat units)
         1        Al     tau(   1) = (   0.0000000   0.0000000   0.0000000  )

     number of k points=   145  Methfessel-Paxton smearing, width (Ry)=  0.0100

     Number of k-points >= 100: set verbosity='high' to print them.

     Dense  grid:     8801 G-vectors     FFT dimensions: (  30,  30,  30)

     Smooth grid:     3119 G-vectors     FFT dimensions: (  24,  24,  24)

     Estimated max dynamical RAM per process >       7.05 MB

     Estimated total dynamical RAM >      14.10 MB

     Initial potential from superposition of free atoms

     starting charge       2.9975, renormalised to       3.0000
     Starting wfcs are    4 randomized atomic wfcs +    2 random wfcs

     total cpu time spent up to now is        0.3 secs

     Self-consistent Calculation

     iteration #  1     ecut=    35.00 Ry     beta= 0.70
     Davidson diagonalization with overlap
     ethr =  1.00E-02,  avg # of iterations =  5.6

     Threshold (ethr) on eigenvalues was too large:
     Diagonalizing with lowered threshold

     Davidson diagonalization with overlap
     ethr =  2.23E-04,  avg # of iterations =  2.4

     total cpu time spent up to now is        1.0 secs

     total energy              =     -12.46670727 Ry
     estimated scf accuracy    <       0.00666886 Ry

     iteration #  2     ecut=    35.00 Ry     beta= 0.70
     Davidson diagonalization with overlap
     ethr =  2.22E-04,  avg # of iterations =  1.0

     total cpu time spent up to now is        1.2 secs

     total energy              =     -12.46670843 Ry
     estimated scf accuracy    <       0.00039865 Ry

     iteration #  3     ecut=    35.00 Ry     beta= 0.70
     Davidson diagonalization with overlap
     ethr =  1.33E-05,  avg # of iterations =  3.4

     total cpu time spent up to now is        1.5 secs

     total energy              =     -12.46674479 Ry
     estimated scf accuracy    <       0.00000096 Ry

     iteration #  4     ecut=    35.00 Ry     beta= 0.70
     Davidson diagonalization with overlap
     ethr =  3.19E-08,  avg # of iterations =  3.3

     total cpu time spent up to now is        1.8 secs

     total energy              =     -12.46674636 Ry
     estimated scf accuracy    <       0.00000004 Ry

     iteration #  5     ecut=    35.00 Ry     beta= 0.70
     Davidson diagonalization with overlap
     ethr =  1.41E-09,  avg # of iterations =  1.4

     total cpu time spent up to now is        2.0 secs

     End of self-consistent calculation

     Number of k-points >= 100: set verbosity='high' to print the bands.

     the Fermi energy is     8.0460 ev

!    total energy              =     -12.46674636 Ry
     estimated scf accuracy    <          2.5E-09 Ry
     smearing contrib. (-TS)   =       0.00004537 Ry
     internal energy E=F+TS    =     -12.46679174 Ry

     The total energy is F=E-TS. E is the sum of the following terms:
     one-electron contribution =       2.97842885 Ry
     hartree contribution      =       0.00770868 Ry
     xc contribution           =     -10.03362477 Ry
     ewald contribution        =      -5.41930449 Ry

     convergence has been achieved in   5 iterations

     Forces acting on atoms (cartesian axes, Ry/au):

     atom    1 type  1   force =     0.00000000    0.00000000    0.00000000

     Total force =     0.000000     Total SCF correction =     0.000000


     Computing stress (Cartesian axis) and pressure

          total   stress  (Ry/bohr**3)                   (kbar)     P=       -3.79
  -0.00002576  -0.00000000  -0.00000000           -3.79       -0.00       -0.00
  -0.00000000  -0.00002576   0.00000000           -0.00       -3.79        0.00
  -0.00000000   0.00000000  -0.00002576           -0.00        0.00       -3.79


     Writing all to output data dir /Users/zhy/Aluminum-from-First-Principles/eos-runs/scale-1.0042_volume-0110.3610-bohr3/qe-out/aluminum_eos_scale-1p0042_volume-0110p3610-bohr3.save/ :
     XML data file, charge density, pseudopotentials, collected wavefunctions

     init_run     :      0.29s CPU      0.30s WALL (       1 calls)
     electrons    :      1.57s CPU      1.71s WALL (       1 calls)
     forces       :      0.01s CPU      0.01s WALL (       1 calls)
     stress       :      0.04s CPU      0.04s WALL (       1 calls)

     Called by init_run:
     wfcinit      :      0.08s CPU      0.08s WALL (       1 calls)
     potinit      :      0.10s CPU      0.10s WALL (       1 calls)
     hinit0       :      0.11s CPU      0.11s WALL (       1 calls)

     Called by electrons:
     c_bands      :      1.31s CPU      1.41s WALL (       6 calls)
     sum_band     :      0.25s CPU      0.28s WALL (       6 calls)
     v_of_rho     :      0.02s CPU      0.02s WALL (       6 calls)
     newd         :      0.00s CPU      0.00s WALL (       6 calls)
     mix_rho      :      0.00s CPU      0.00s WALL (       6 calls)

     Called by c_bands:
     init_us_2    :      0.02s CPU      0.03s WALL (    2175 calls)
     cegterg      :      1.29s CPU      1.38s WALL (     870 calls)

     Called by *egterg:
     cdiaghg      :      0.08s CPU      0.08s WALL (    3193 calls)
     h_psi        :      1.18s CPU      1.26s WALL (    3483 calls)
     s_psi        :      0.01s CPU      0.01s WALL (    3483 calls)
     g_psi        :      0.00s CPU      0.00s WALL (    2468 calls)

     Called by h_psi:
     h_psi:calbec :      0.01s CPU      0.02s WALL (    3483 calls)
     vloc_psi     :      1.16s CPU      1.23s WALL (    3483 calls)
     add_vuspsi   :      0.01s CPU      0.01s WALL (    3483 calls)

     General routines
     calbec       :      0.03s CPU      0.03s WALL (    6818 calls)
     fft          :      0.09s CPU      0.09s WALL (     102 calls)
     ffts         :      0.09s CPU      0.10s WALL (      12 calls)
     fftw         :      1.24s CPU      1.32s WALL (   35114 calls)
     interpolate  :      0.10s CPU      0.10s WALL (       6 calls)

     Parallel routines

     PWSCF        :      1.94s CPU      2.11s WALL


   This run was terminated on:  14:58:20  24Sep2026            

=------------------------------------------------------------------------------=
   JOB DONE.
=------------------------------------------------------------------------------=
Note: The following floating-point exceptions are signalling: IEEE_INVALID_FLAG IEEE_DIVIDE_BY_ZERO IEEE_UNDERFLOW_FLAG
Note: The following floating-point exceptions are signalling: IEEE_UNDERFLOW_FLAG
