
     Program PWSCF v.7.6 starts on 23Sep2026 at  1:28: 3 

     This program is part of the open-source Quantum ESPRESSO suite
     for quantum simulation of materials; please cite
         "P. Giannozzi et al., J. Phys.:Condens. Matter 21 395502 (2009);
         "P. Giannozzi et al., J. Phys.:Condens. Matter 29 465901 (2017);
         "P. Giannozzi et al., J. Chem. Phys. 152 154105 (2020);
          URL http://www.quantum-espresso.org", 
     in publications or presentations arising from this work. More details at
     http://www.quantum-espresso.org/quote

     Parallel version (MPI), running on     2 processors

     MPI processes distributed on     1 nodes
     0 MiB available memory on the printing compute node when the environment starts

     Reading input from Al.scf.inp

     Current dimensions of program PWSCF are:
     Max number of different atomic species (ntypx) = 10
     Max number of k-points (npk) =  40000
     Max angular momentum in pseudopotentials (lmaxx) =  4

     R & G space division:  proc/nbgrp/npool/nimage =       2
     Subspace diagonalization in iterative solution of the eigenvalue problem:
     a serial algorithm will be used


     Parallelization info
     --------------------
     sticks:   dense  smooth     PW     G-vecs:    dense   smooth      PW
     Min         384     189     60                 7164     2513     469
     Max         385     190     61                 7167     2516     472
     Sum         769     379    121                14331     5029     941

     Using Slab Decomposition



     bravais-lattice index     =            2
     lattice parameter (alat)  =       9.0000  a.u.
     unit-cell volume          =     182.2500 (a.u.)^3
     number of atoms/cell      =            1
     number of atomic types    =            1
     number of electrons       =         3.00
     number of Kohn-Sham states=            6
     kinetic-energy cutoff     =      35.0000  Ry
     charge density cutoff     =     280.0000  Ry
     scf convergence threshold =      1.0E-08
     mixing beta               =       0.7000
     number of iterations used =            8  plain     mixing
     Exchange-correlation= SLA  PW   PBE  PBE
                           (   1   4   3   4   0   0   0)

     celldm(1)=   9.000000  celldm(2)=   0.000000  celldm(3)=   0.000000
     celldm(4)=   0.000000  celldm(5)=   0.000000  celldm(6)=   0.000000

     crystal axes: (cart. coord. in units of alat)
               a(1) = (  -0.500000   0.000000   0.500000 )  
               a(2) = (   0.000000   0.500000   0.500000 )  
               a(3) = (  -0.500000   0.500000   0.000000 )  

     reciprocal axes: (cart. coord. in units 2 pi/alat)
               b(1) = ( -1.000000 -1.000000  1.000000 )  
               b(2) = (  1.000000  1.000000  1.000000 )  
               b(3) = ( -1.000000  1.000000 -1.000000 )  


     PseudoPot. # 1 for Al read from file:
     /Users/zhy/Aluminum-from-First-Principles/Al.pbe-n-van.UPF
     MD5 check sum: cbc97ad259b400557db688b98a6ada97
     Pseudo is Ultrasoft + core correction, Zval =  3.0
     Generated by new atomic code, or converted to UPF format
     Using radial grid of  893 points,  2 beta functions with: 
                l(1) =   0
                l(2) =   1
     Q(r) pseudized with  8 coefficients,  rinner =    0.900   0.900   0.900


     atomic species   valence    mass     pseudopotential
     Al                3.00    26.98200     Al( 1.00)

     48 Sym. Ops., with inversion, found



   Cartesian axes

     site n.     atom                  positions (alat units)
         1        Al     tau(   1) = (   0.0000000   0.0000000   0.0000000  )

     number of k points=    29  Methfessel-Paxton smearing, width (Ry)=  0.0100
                       cart. coord. in units 2pi/alat
        k(    1) = (   0.0000000   0.0000000   0.0000000), wk =   0.0039062
        k(    2) = (  -0.1250000   0.1250000  -0.1250000), wk =   0.0312500
        k(    3) = (  -0.2500000   0.2500000  -0.2500000), wk =   0.0312500
        k(    4) = (  -0.3750000   0.3750000  -0.3750000), wk =   0.0312500
        k(    5) = (   0.5000000  -0.5000000   0.5000000), wk =   0.0156250
        k(    6) = (   0.0000000   0.2500000   0.0000000), wk =   0.0234375
        k(    7) = (  -0.1250000   0.3750000  -0.1250000), wk =   0.0937500
        k(    8) = (  -0.2500000   0.5000000  -0.2500000), wk =   0.0937500
        k(    9) = (   0.6250000  -0.3750000   0.6250000), wk =   0.0937500
        k(   10) = (   0.5000000  -0.2500000   0.5000000), wk =   0.0937500
        k(   11) = (   0.3750000  -0.1250000   0.3750000), wk =   0.0937500
        k(   12) = (   0.2500000   0.0000000   0.2500000), wk =   0.0468750
        k(   13) = (   0.0000000   0.5000000   0.0000000), wk =   0.0234375
        k(   14) = (  -0.1250000   0.6250000  -0.1250000), wk =   0.0937500
        k(   15) = (   0.7500000  -0.2500000   0.7500000), wk =   0.0937500
        k(   16) = (   0.6250000  -0.1250000   0.6250000), wk =   0.0937500
        k(   17) = (   0.5000000   0.0000000   0.5000000), wk =   0.0468750
        k(   18) = (   0.0000000   0.7500000   0.0000000), wk =   0.0234375
        k(   19) = (   0.8750000  -0.1250000   0.8750000), wk =   0.0937500
        k(   20) = (   0.7500000   0.0000000   0.7500000), wk =   0.0468750
        k(   21) = (   0.0000000  -1.0000000   0.0000000), wk =   0.0117188
        k(   22) = (  -0.2500000   0.5000000   0.0000000), wk =   0.0937500
        k(   23) = (   0.6250000  -0.3750000   0.8750000), wk =   0.1875000
        k(   24) = (   0.5000000  -0.2500000   0.7500000), wk =   0.0937500
        k(   25) = (   0.7500000  -0.2500000   1.0000000), wk =   0.0937500
        k(   26) = (   0.6250000  -0.1250000   0.8750000), wk =   0.1875000
        k(   27) = (   0.5000000   0.0000000   0.7500000), wk =   0.0937500
        k(   28) = (  -0.2500000  -1.0000000   0.0000000), wk =   0.0468750
        k(   29) = (  -0.5000000  -1.0000000   0.0000000), wk =   0.0234375

     Dense  grid:    14331 G-vectors     FFT dimensions: (  36,  36,  36)

     Smooth grid:     5029 G-vectors     FFT dimensions: (  24,  24,  24)

     Estimated max dynamical RAM per process >       8.18 MB

     Estimated total dynamical RAM >      16.35 MB

     Initial potential from superposition of free atoms

     starting charge       2.9975, renormalised to       3.0000
     Starting wfcs are    4 randomized atomic wfcs +    2 random wfcs

     total cpu time spent up to now is        0.3 secs

     Self-consistent Calculation

     iteration #  1     ecut=    35.00 Ry     beta= 0.70
     Davidson diagonalization with overlap
     ethr =  1.00E-02,  avg # of iterations =  5.0

     Threshold (ethr) on eigenvalues was too large:
     Diagonalizing with lowered threshold

     Davidson diagonalization with overlap
     ethr =  1.74E-04,  avg # of iterations =  3.5

     total cpu time spent up to now is        0.5 secs

     total energy              =     -12.41778366 Ry
     estimated scf accuracy    <       0.00507269 Ry

     iteration #  2     ecut=    35.00 Ry     beta= 0.70
     Davidson diagonalization with overlap
     ethr =  1.69E-04,  avg # of iterations =  1.0

     total cpu time spent up to now is        0.6 secs

     total energy              =     -12.41790627 Ry
     estimated scf accuracy    <       0.00023741 Ry

     iteration #  3     ecut=    35.00 Ry     beta= 0.70
     Davidson diagonalization with overlap
     ethr =  7.91E-06,  avg # of iterations =  4.0

     total cpu time spent up to now is        0.7 secs

     total energy              =     -12.41793976 Ry
     estimated scf accuracy    <       0.00000119 Ry

     iteration #  4     ecut=    35.00 Ry     beta= 0.70
     Davidson diagonalization with overlap
     ethr =  3.95E-08,  avg # of iterations =  2.9

     total cpu time spent up to now is        1.6 secs

     total energy              =     -12.41794114 Ry
     estimated scf accuracy    <       0.00000007 Ry

     iteration #  5     ecut=    35.00 Ry     beta= 0.70
     Davidson diagonalization with overlap
     ethr =  2.30E-09,  avg # of iterations =  1.4

     total cpu time spent up to now is        1.7 secs

     End of self-consistent calculation

          k = 0.0000 0.0000 0.0000 (   609 PWs)   bands (ev):

    -4.4974  12.4205  12.4205  12.4205  13.9222  13.9222

          k =-0.1250 0.1250-0.1250 (   631 PWs)   bands (ev):

    -4.1943   9.6811  11.7910  11.7910  14.1640  14.8393

          k =-0.2500 0.2500-0.2500 (   631 PWs)   bands (ev):

    -3.2898   6.1707  11.1516  11.1516  13.8003  14.7265

          k =-0.3750 0.3750-0.3750 (   622 PWs)   bands (ev):

    -1.8067   3.0476  10.8753  10.8753  13.6102  13.6260

          k = 0.5000-0.5000 0.5000 (   628 PWs)   bands (ev):

    -0.1809   0.8672  10.8314  10.8314  13.1454  13.6245

          k = 0.0000 0.2500 0.0000 (   629 PWs)   bands (ev):

    -4.0933  10.6304  10.6304  11.3062  12.2528  15.2465

          k =-0.1250 0.3750-0.1250 (   632 PWs)   bands (ev):

    -3.3890   7.5343   9.8438  10.6185  12.5123  14.1526

          k =-0.2500 0.5000-0.2500 (   629 PWs)   bands (ev):

    -2.0954   4.2793   9.5549   9.6841  11.8353  15.4433

          k = 0.6250-0.3750 0.6250 (   634 PWs)   bands (ev):

    -0.3104   1.5784   8.8081   9.7695  11.8401  14.7332

          k = 0.5000-0.2500 0.5000 (   632 PWs)   bands (ev):

    -0.9357   2.3887   8.2760  10.4453  12.5719  14.2480

          k = 0.3750-0.1250 0.3750 (   633 PWs)   bands (ev):

    -2.5908   5.3214   8.2291  11.4447  13.8702  14.4246

          k = 0.2500 0.0000 0.2500 (   620 PWs)   bands (ev):

    -3.6906   8.7008   8.7097  12.3266  14.7042  14.9272

          k = 0.0000 0.5000 0.0000 (   632 PWs)   bands (ev):

    -2.8864   8.7797   8.8875   8.8875  10.3610  11.6100

          k =-0.1250 0.6250-0.1250 (   635 PWs)   bands (ev):

    -1.7909   5.9685   7.4686   8.4375  10.3244  12.4622

          k = 0.7500-0.2500 0.7500 (   643 PWs)   bands (ev):

    -0.1422   3.1231   6.1312   8.5147  10.3591  15.2130

          k = 0.6250-0.1250 0.6250 (   641 PWs)   bands (ev):

     0.4691   2.3450   5.3055   9.1114  11.0005  16.7962

          k = 0.5000 0.0000 0.5000 (   636 PWs)   bands (ev):

    -1.3062   4.9785   5.0828  10.1822  12.2166  16.3345

          k = 0.0000 0.7500 0.0000 (   632 PWs)   bands (ev):

    -0.8960   5.2138   7.8146   7.8146   9.1771   9.9623

          k = 0.8750-0.1250 0.8750 (   644 PWs)   bands (ev):

     0.5674   3.5958   5.4716   7.7216   9.4329  11.7012

          k = 0.7500 0.0000 0.7500 (   632 PWs)   bands (ev):

     2.0093   2.6799   3.3843   8.1613   9.9311  14.9264

          k = 0.0000-1.0000 0.0000 (   636 PWs)   bands (ev):

     1.7693   1.9090   7.4540   7.4540   8.7783   9.5018

          k =-0.2500 0.5000 0.0000 (   630 PWs)   bands (ev):

    -2.4889   6.8610   6.8713   9.7895  13.0957  13.4160

          k = 0.6250-0.3750 0.8750 (   640 PWs)   bands (ev):

    -1.0130   3.7977   6.7103   8.4284  13.0530  14.5583

          k = 0.5000-0.2500 0.7500 (   638 PWs)   bands (ev):

     0.6120   1.6285   6.8429   7.7624  13.1474  14.0552

          k = 0.7500-0.2500 1.0000 (   652 PWs)   bands (ev):

    -0.5107   5.1889   5.7284   6.5007  11.9936  12.2819

          k = 0.6250-0.1250 0.8750 (   643 PWs)   bands (ev):

     1.2563   3.0187   4.5506   6.2696  12.3873  15.0886

          k = 0.5000 0.0000 0.7500 (   643 PWs)   bands (ev):

     0.6128   3.8320   3.9452   7.0557  13.1359  16.0402

          k =-0.2500-1.0000 0.0000 (   642 PWs)   bands (ev):

     2.0817   2.2946   5.3489   5.7415  11.6198  11.9135

          k =-0.5000-1.0000 0.0000 (   648 PWs)   bands (ev):

     2.5797   3.4481   3.4481   4.5422  14.8010  15.6928

     the Fermi energy is     3.7028 ev

!    total energy              =     -12.41794115 Ry
     estimated scf accuracy    <          2.3E-09 Ry
     smearing contrib. (-TS)   =       0.00009967 Ry
     internal energy E=F+TS    =     -12.41804082 Ry

     The total energy is F=E-TS. E is the sum of the following terms:
     one-electron contribution =       1.96090293 Ry
     hartree contribution      =       0.02547729 Ry
     xc contribution           =      -9.81955896 Ry
     ewald contribution        =      -4.58486207 Ry

     convergence has been achieved in   5 iterations

     Forces acting on atoms (cartesian axes, Ry/au):

     atom    1 type  1   force =     0.00000000    0.00000000    0.00000000

     Total force =     0.000000     Total SCF correction =     0.000000


     Computing stress (Cartesian axis) and pressure

          total   stress  (Ry/bohr**3)                   (kbar)     P=     -113.70
  -0.00077291  -0.00000000  -0.00000000         -113.70       -0.00       -0.00
  -0.00000000  -0.00077291   0.00000000           -0.00     -113.70        0.00
  -0.00000000   0.00000000  -0.00077291           -0.00        0.00     -113.70


     Writing all to output data dir /Users/zhy/Aluminum-from-First-Principles/convergence-runs/smearing/ecut-035.0-ry_k-08x08x08_degauss-0.010-ry/qe-out/aluminum_ecut-035p0-ry_k-08x08x08_degauss-0p010-ry.save/ :
     XML data file, charge density, pseudopotentials, collected wavefunctions

     init_run     :      0.31s CPU      0.33s WALL (       1 calls)
     electrons    :      0.45s CPU      1.35s WALL (       1 calls)
     forces       :      0.01s CPU      0.01s WALL (       1 calls)
     stress       :      0.02s CPU      0.02s WALL (       1 calls)

     Called by init_run:
     wfcinit      :      0.02s CPU      0.02s WALL (       1 calls)
     potinit      :      0.10s CPU      0.11s WALL (       1 calls)
     hinit0       :      0.17s CPU      0.18s WALL (       1 calls)

     Called by electrons:
     c_bands      :      0.35s CPU      1.22s WALL (       6 calls)
     sum_band     :      0.07s CPU      0.08s WALL (       6 calls)
     v_of_rho     :      0.03s CPU      0.04s WALL (       6 calls)
     newd         :      0.01s CPU      0.01s WALL (       6 calls)
     mix_rho      :      0.00s CPU      0.00s WALL (       6 calls)

     Called by c_bands:
     init_us_2    :      0.01s CPU      0.02s WALL (     435 calls)
     cegterg      :      0.34s CPU      1.18s WALL (     174 calls)

     Called by *egterg:
     cdiaghg      :      0.02s CPU      0.06s WALL (     661 calls)
     h_psi        :      0.30s CPU      1.07s WALL (     719 calls)
     s_psi        :      0.00s CPU      0.00s WALL (     719 calls)
     g_psi        :      0.00s CPU      0.00s WALL (     516 calls)

     Called by h_psi:
     h_psi:calbec :      0.01s CPU      0.01s WALL (     719 calls)
     vloc_psi     :      0.29s CPU      1.04s WALL (     719 calls)
     add_vuspsi   :      0.00s CPU      0.00s WALL (     719 calls)

     General routines
     calbec       :      0.01s CPU      0.02s WALL (    1386 calls)
     fft          :      0.16s CPU      0.18s WALL (     102 calls)
     ffts         :      0.10s CPU      0.10s WALL (      12 calls)
     fftw         :      0.31s CPU      1.06s WALL (    6950 calls)
     interpolate  :      0.10s CPU      0.10s WALL (       6 calls)

     Parallel routines

     PWSCF        :      0.80s CPU      1.74s WALL


   This run was terminated on:   1:28: 5  23Sep2026            

=------------------------------------------------------------------------------=
   JOB DONE.
=------------------------------------------------------------------------------=
Note: The following floating-point exceptions are signalling: IEEE_UNDERFLOW_FLAG
Note: The following floating-point exceptions are signalling: IEEE_INVALID_FLAG IEEE_DIVIDE_BY_ZERO IEEE_UNDERFLOW_FLAG
