
     Program PWSCF v.7.6 starts on 22Sep2026 at 23:45:20 

     This program is part of the open-source Quantum ESPRESSO suite
     for quantum simulation of materials; please cite
         "P. Giannozzi et al., J. Phys.:Condens. Matter 21 395502 (2009);
         "P. Giannozzi et al., J. Phys.:Condens. Matter 29 465901 (2017);
         "P. Giannozzi et al., J. Chem. Phys. 152 154105 (2020);
          URL http://www.quantum-espresso.org", 
     in publications or presentations arising from this work. More details at
     http://www.quantum-espresso.org/quote

     Parallel version (MPI), running on     2 processors

     MPI processes distributed on     1 nodes
     0 MiB available memory on the printing compute node when the environment starts

     Reading input from Al.scf.inp

     Current dimensions of program PWSCF are:
     Max number of different atomic species (ntypx) = 10
     Max number of k-points (npk) =  40000
     Max angular momentum in pseudopotentials (lmaxx) =  4

     R & G space division:  proc/nbgrp/npool/nimage =       2
     Subspace diagonalization in iterative solution of the eigenvalue problem:
     a serial algorithm will be used


     Parallelization info
     --------------------
     sticks:   dense  smooth     PW     G-vecs:    dense   smooth      PW
     Min         279     141     45                 4327     1559     304
     Max         280     142     46                 4330     1560     305
     Sum         559     283     91                 8657     3119     609

     Using Slab Decomposition



     bravais-lattice index     =            2
     lattice parameter (alat)  =       9.0000  a.u.
     unit-cell volume          =     182.2500 (a.u.)^3
     number of atoms/cell      =            1
     number of atomic types    =            1
     number of electrons       =         3.00
     number of Kohn-Sham states=            6
     kinetic-energy cutoff     =      25.0000  Ry
     charge density cutoff     =     200.0000  Ry
     scf convergence threshold =      1.0E-08
     mixing beta               =       0.7000
     number of iterations used =            8  plain     mixing
     Exchange-correlation= SLA  PW   PBE  PBE
                           (   1   4   3   4   0   0   0)

     celldm(1)=   9.000000  celldm(2)=   0.000000  celldm(3)=   0.000000
     celldm(4)=   0.000000  celldm(5)=   0.000000  celldm(6)=   0.000000

     crystal axes: (cart. coord. in units of alat)
               a(1) = (  -0.500000   0.000000   0.500000 )  
               a(2) = (   0.000000   0.500000   0.500000 )  
               a(3) = (  -0.500000   0.500000   0.000000 )  

     reciprocal axes: (cart. coord. in units 2 pi/alat)
               b(1) = ( -1.000000 -1.000000  1.000000 )  
               b(2) = (  1.000000  1.000000  1.000000 )  
               b(3) = ( -1.000000  1.000000 -1.000000 )  


     PseudoPot. # 1 for Al read from file:
     /Users/zhy/Aluminum-from-First-Principles/Al.pbe-n-van.UPF
     MD5 check sum: cbc97ad259b400557db688b98a6ada97
     Pseudo is Ultrasoft + core correction, Zval =  3.0
     Generated by new atomic code, or converted to UPF format
     Using radial grid of  893 points,  2 beta functions with: 
                l(1) =   0
                l(2) =   1
     Q(r) pseudized with  8 coefficients,  rinner =    0.900   0.900   0.900


     atomic species   valence    mass     pseudopotential
     Al                3.00    26.98200     Al( 1.00)

     48 Sym. Ops., with inversion, found



   Cartesian axes

     site n.     atom                  positions (alat units)
         1        Al     tau(   1) = (   0.0000000   0.0000000   0.0000000  )

     number of k points=    29  Methfessel-Paxton smearing, width (Ry)=  0.0500
                       cart. coord. in units 2pi/alat
        k(    1) = (   0.0000000   0.0000000   0.0000000), wk =   0.0039062
        k(    2) = (  -0.1250000   0.1250000  -0.1250000), wk =   0.0312500
        k(    3) = (  -0.2500000   0.2500000  -0.2500000), wk =   0.0312500
        k(    4) = (  -0.3750000   0.3750000  -0.3750000), wk =   0.0312500
        k(    5) = (   0.5000000  -0.5000000   0.5000000), wk =   0.0156250
        k(    6) = (   0.0000000   0.2500000   0.0000000), wk =   0.0234375
        k(    7) = (  -0.1250000   0.3750000  -0.1250000), wk =   0.0937500
        k(    8) = (  -0.2500000   0.5000000  -0.2500000), wk =   0.0937500
        k(    9) = (   0.6250000  -0.3750000   0.6250000), wk =   0.0937500
        k(   10) = (   0.5000000  -0.2500000   0.5000000), wk =   0.0937500
        k(   11) = (   0.3750000  -0.1250000   0.3750000), wk =   0.0937500
        k(   12) = (   0.2500000   0.0000000   0.2500000), wk =   0.0468750
        k(   13) = (   0.0000000   0.5000000   0.0000000), wk =   0.0234375
        k(   14) = (  -0.1250000   0.6250000  -0.1250000), wk =   0.0937500
        k(   15) = (   0.7500000  -0.2500000   0.7500000), wk =   0.0937500
        k(   16) = (   0.6250000  -0.1250000   0.6250000), wk =   0.0937500
        k(   17) = (   0.5000000   0.0000000   0.5000000), wk =   0.0468750
        k(   18) = (   0.0000000   0.7500000   0.0000000), wk =   0.0234375
        k(   19) = (   0.8750000  -0.1250000   0.8750000), wk =   0.0937500
        k(   20) = (   0.7500000   0.0000000   0.7500000), wk =   0.0468750
        k(   21) = (   0.0000000  -1.0000000   0.0000000), wk =   0.0117188
        k(   22) = (  -0.2500000   0.5000000   0.0000000), wk =   0.0937500
        k(   23) = (   0.6250000  -0.3750000   0.8750000), wk =   0.1875000
        k(   24) = (   0.5000000  -0.2500000   0.7500000), wk =   0.0937500
        k(   25) = (   0.7500000  -0.2500000   1.0000000), wk =   0.0937500
        k(   26) = (   0.6250000  -0.1250000   0.8750000), wk =   0.1875000
        k(   27) = (   0.5000000   0.0000000   0.7500000), wk =   0.0937500
        k(   28) = (  -0.2500000  -1.0000000   0.0000000), wk =   0.0468750
        k(   29) = (  -0.5000000  -1.0000000   0.0000000), wk =   0.0234375

     Dense  grid:     8657 G-vectors     FFT dimensions: (  30,  30,  30)

     Smooth grid:     3119 G-vectors     FFT dimensions: (  24,  24,  24)

     Estimated max dynamical RAM per process >       4.93 MB

     Estimated total dynamical RAM >       9.86 MB

     Initial potential from superposition of free atoms

     starting charge       2.9975, renormalised to       3.0000
     Starting wfcs are    4 randomized atomic wfcs +    2 random wfcs

     total cpu time spent up to now is        0.2 secs

     Self-consistent Calculation

     iteration #  1     ecut=    25.00 Ry     beta= 0.70
     Davidson diagonalization with overlap
     ethr =  1.00E-02,  avg # of iterations =  5.1

     Threshold (ethr) on eigenvalues was too large:
     Diagonalizing with lowered threshold

     Davidson diagonalization with overlap
     ethr =  1.84E-04,  avg # of iterations =  2.8

     total cpu time spent up to now is        0.4 secs

     total energy              =     -12.41662541 Ry
     estimated scf accuracy    <       0.00540450 Ry

     iteration #  2     ecut=    25.00 Ry     beta= 0.70
     Davidson diagonalization with overlap
     ethr =  1.80E-04,  avg # of iterations =  1.0

     total cpu time spent up to now is        0.4 secs

     total energy              =     -12.41674388 Ry
     estimated scf accuracy    <       0.00025023 Ry

     iteration #  3     ecut=    25.00 Ry     beta= 0.70
     Davidson diagonalization with overlap
     ethr =  8.34E-06,  avg # of iterations =  3.1

     total cpu time spent up to now is        0.5 secs

     total energy              =     -12.41677363 Ry
     estimated scf accuracy    <       0.00000098 Ry

     iteration #  4     ecut=    25.00 Ry     beta= 0.70
     Davidson diagonalization with overlap
     ethr =  3.25E-08,  avg # of iterations =  3.1

     total cpu time spent up to now is        0.5 secs

     total energy              =     -12.41677472 Ry
     estimated scf accuracy    <       0.00000005 Ry

     iteration #  5     ecut=    25.00 Ry     beta= 0.70
     Davidson diagonalization with overlap
     ethr =  1.82E-09,  avg # of iterations =  1.3

     total cpu time spent up to now is        0.5 secs

     End of self-consistent calculation

          k = 0.0000 0.0000 0.0000 (   387 PWs)   bands (ev):

    -4.4981  12.4668  12.4668  12.4668  13.9445  13.9446

          k =-0.1250 0.1250-0.1250 (   369 PWs)   bands (ev):

    -4.1944   9.7090  11.8351  11.8351  14.2029  14.8785

          k =-0.2500 0.2500-0.2500 (   380 PWs)   bands (ev):

    -3.2895   6.1857  11.1901  11.1901  13.8431  14.7559

          k =-0.3750 0.3750-0.3750 (   386 PWs)   bands (ev):

    -1.8049   3.0535  10.9114  10.9114  13.6318  13.6737

          k = 0.5000-0.5000 0.5000 (   392 PWs)   bands (ev):

    -0.1802   0.8733  10.8668  10.8668  13.1633  13.6744

          k = 0.0000 0.2500 0.0000 (   371 PWs)   bands (ev):

    -4.0933  10.6642  10.6642  11.3530  12.2711  15.2713

          k =-0.1250 0.3750-0.1250 (   378 PWs)   bands (ev):

    -3.3886   7.5531   9.8750  10.6564  12.5352  14.1810

          k =-0.2500 0.5000-0.2500 (   380 PWs)   bands (ev):

    -2.0942   4.2889   9.5857   9.7177  11.8532  15.4946

          k = 0.6250-0.3750 0.6250 (   385 PWs)   bands (ev):

    -0.3082   1.5847   8.8332   9.7983  11.8593  14.7632

          k = 0.5000-0.2500 0.5000 (   385 PWs)   bands (ev):

    -0.9334   2.3955   8.2983  10.4768  12.5941  14.2753

          k = 0.3750-0.1250 0.3750 (   382 PWs)   bands (ev):

    -2.5902   5.3341   8.2531  11.4867  13.9005  14.4488

          k = 0.2500 0.0000 0.2500 (   381 PWs)   bands (ev):

    -3.6904   8.7256   8.7299  12.3745  14.7280  14.9697

          k = 0.0000 0.5000 0.0000 (   375 PWs)   bands (ev):

    -2.8858   8.8116   8.9154   8.9154  10.3768  11.6295

          k =-0.1250 0.6250-0.1250 (   386 PWs)   bands (ev):

    -1.7894   5.9814   7.4862   8.4628  10.3419  12.4940

          k = 0.7500-0.2500 0.7500 (   390 PWs)   bands (ev):

    -0.1393   3.1304   6.1436   8.5390  10.3779  15.2540

          k = 0.6250-0.1250 0.6250 (   389 PWs)   bands (ev):

     0.4720   2.3526   5.3157   9.1381  11.0216  16.8322

          k = 0.5000 0.0000 0.5000 (   379 PWs)   bands (ev):

    -1.3038   4.9913   5.0947  10.2155  12.2421  16.3752

          k = 0.0000 0.7500 0.0000 (   387 PWs)   bands (ev):

    -0.8939   5.2251   7.8367   7.8367   9.1909   9.9839

          k = 0.8750-0.1250 0.8750 (   385 PWs)   bands (ev):

     0.5714   3.6043   5.4835   7.7446   9.4505  11.7324

          k = 0.7500 0.0000 0.7500 (   391 PWs)   bands (ev):

     2.0124   2.6887   3.3925   8.1825   9.9481  14.9667

          k = 0.0000-1.0000 0.0000 (   388 PWs)   bands (ev):

     1.7728   1.9173   7.4740   7.4740   8.7910   9.5222

          k =-0.2500 0.5000 0.0000 (   378 PWs)   bands (ev):

    -2.4880   6.8788   6.8910   9.8201  13.1231  13.4493

          k = 0.6250-0.3750 0.8750 (   386 PWs)   bands (ev):

    -1.0107   3.8058   6.7277   8.4494  13.0845  14.5941

          k = 0.5000-0.2500 0.7500 (   384 PWs)   bands (ev):

     0.6144   1.6361   6.8626   7.7800  13.1803  14.0881

          k = 0.7500-0.2500 1.0000 (   391 PWs)   bands (ev):

    -0.5082   5.2006   5.7413   6.5135  12.0175  12.3163

          k = 0.6250-0.1250 0.8750 (   388 PWs)   bands (ev):

     1.2607   3.0267   4.5605   6.2833  12.4181  15.1284

          k = 0.5000 0.0000 0.7500 (   385 PWs)   bands (ev):

     0.6169   3.8418   3.9538   7.0728  13.1697  16.0740

          k =-0.2500-1.0000 0.0000 (   384 PWs)   bands (ev):

     2.0862   2.3041   5.3610   5.7532  11.6443  11.9509

          k =-0.5000-1.0000 0.0000 (   396 PWs)   bands (ev):

     2.5831   3.4570   3.4570   4.5509  14.8435  15.7233

     the Fermi energy is     3.6108 ev

!    total energy              =     -12.41677473 Ry
     estimated scf accuracy    <          1.5E-09 Ry
     smearing contrib. (-TS)   =      -0.00100747 Ry
     internal energy E=F+TS    =     -12.41576725 Ry

     The total energy is F=E-TS. E is the sum of the following terms:
     one-electron contribution =       1.96041498 Ry
     hartree contribution      =       0.02501501 Ry
     xc contribution           =      -9.81633513 Ry
     ewald contribution        =      -4.58486212 Ry

     convergence has been achieved in   5 iterations

     Forces acting on atoms (cartesian axes, Ry/au):

     atom    1 type  1   force =     0.00000000    0.00000000    0.00000000

     Total force =     0.000000     Total SCF correction =     0.000000


     Computing stress (Cartesian axis) and pressure

          total   stress  (Ry/bohr**3)                   (kbar)     P=     -118.62
  -0.00080639   0.00000000  -0.00000000         -118.62        0.00       -0.00
   0.00000000  -0.00080639  -0.00000000            0.00     -118.62       -0.00
  -0.00000000  -0.00000000  -0.00080639           -0.00       -0.00     -118.62


     Writing all to output data dir /Users/zhy/Aluminum-from-First-Principles/convergence-runs/cutoff-kmesh/ecut-025.0-ry_k-08x08x08_degauss-0.050-ry/qe-out/aluminum_ecut-025p0-ry_k-08x08x08_degauss-0p050-ry.save/ :
     XML data file, charge density, pseudopotentials, collected wavefunctions

     init_run     :      0.22s CPU      0.23s WALL (       1 calls)
     electrons    :      0.30s CPU      0.31s WALL (       1 calls)
     forces       :      0.00s CPU      0.00s WALL (       1 calls)
     stress       :      0.01s CPU      0.01s WALL (       1 calls)

     Called by init_run:
     wfcinit      :      0.01s CPU      0.02s WALL (       1 calls)
     potinit      :      0.10s CPU      0.10s WALL (       1 calls)
     hinit0       :      0.10s CPU      0.10s WALL (       1 calls)

     Called by electrons:
     c_bands      :      0.23s CPU      0.24s WALL (       6 calls)
     sum_band     :      0.05s CPU      0.05s WALL (       6 calls)
     v_of_rho     :      0.02s CPU      0.02s WALL (       6 calls)
     newd         :      0.00s CPU      0.00s WALL (       6 calls)
     mix_rho      :      0.00s CPU      0.00s WALL (       6 calls)

     Called by c_bands:
     init_us_2    :      0.00s CPU      0.00s WALL (     435 calls)
     cegterg      :      0.23s CPU      0.24s WALL (     174 calls)

     Called by *egterg:
     cdiaghg      :      0.01s CPU      0.01s WALL (     622 calls)
     h_psi        :      0.21s CPU      0.22s WALL (     680 calls)
     s_psi        :      0.00s CPU      0.00s WALL (     680 calls)
     g_psi        :      0.00s CPU      0.00s WALL (     477 calls)

     Called by h_psi:
     h_psi:calbec :      0.00s CPU      0.00s WALL (     680 calls)
     vloc_psi     :      0.21s CPU      0.21s WALL (     680 calls)
     add_vuspsi   :      0.00s CPU      0.00s WALL (     680 calls)

     General routines
     calbec       :      0.00s CPU      0.00s WALL (    1347 calls)
     fft          :      0.09s CPU      0.09s WALL (     102 calls)
     ffts         :      0.09s CPU      0.09s WALL (      12 calls)
     fftw         :      0.22s CPU      0.23s WALL (    6828 calls)
     interpolate  :      0.09s CPU      0.09s WALL (       6 calls)

     Parallel routines

     PWSCF        :      0.55s CPU      0.58s WALL


   This run was terminated on:  23:45:20  22Sep2026            

=------------------------------------------------------------------------------=
   JOB DONE.
=------------------------------------------------------------------------------=
Note: The following floating-point exceptions are signalling: IEEE_INVALID_FLAG IEEE_DIVIDE_BY_ZERO IEEE_UNDERFLOW_FLAG
Note: The following floating-point exceptions are signalling: IEEE_UNDERFLOW_FLAG
