
     Program PWSCF v.7.6 starts on 26Sep2026 at  1:30:25 

     This program is part of the open-source Quantum ESPRESSO suite
     for quantum simulation of materials; please cite
         "P. Giannozzi et al., J. Phys.:Condens. Matter 21 395502 (2009);
         "P. Giannozzi et al., J. Phys.:Condens. Matter 29 465901 (2017);
         "P. Giannozzi et al., J. Chem. Phys. 152 154105 (2020);
          URL http://www.quantum-espresso.org", 
     in publications or presentations arising from this work. More details at
     http://www.quantum-espresso.org/quote

     Parallel version (MPI), running on     2 processors

     MPI processes distributed on     1 nodes
     0 MiB available memory on the printing compute node when the environment starts

     Reading input from Al.scf.inp

     Current dimensions of program PWSCF are:
     Max number of different atomic species (ntypx) = 10
     Max number of k-points (npk) =  40000
     Max angular momentum in pseudopotentials (lmaxx) =  4

     IMPORTANT: XC functional enforced from input :
     Exchange-correlation= PZ
                           (   1   1   0   0   0   0   0)
     Any further DFT definition will be discarded
     Please, verify this is what you really want


     R & G space division:  proc/nbgrp/npool/nimage =       2
     Subspace diagonalization in iterative solution of the eigenvalue problem:
     a serial algorithm will be used


     Parallelization info
     --------------------
     sticks:   dense  smooth     PW     G-vecs:    dense   smooth      PW
     Min         156     156     54                 1859     1859     373
     Max         157     157     55                 1860     1860     376
     Sum         313     313    109                 3719     3719     749

     Using Slab Decomposition



     bravais-lattice index     =            2
     lattice parameter (alat)  =       7.6000  a.u.
     unit-cell volume          =     109.7440 (a.u.)^3
     number of atoms/cell      =            1
     number of atomic types    =            1
     number of electrons       =         3.00
     number of Kohn-Sham states=            6
     kinetic-energy cutoff     =      40.0000  Ry
     charge density cutoff     =     160.0000  Ry
     scf convergence threshold =      1.0E-08
     mixing beta               =       0.7000
     number of iterations used =            8  plain     mixing
     Exchange-correlation= PZ
                           (   1   1   0   0   0   0   0)

     celldm(1)=   7.600000  celldm(2)=   0.000000  celldm(3)=   0.000000
     celldm(4)=   0.000000  celldm(5)=   0.000000  celldm(6)=   0.000000

     crystal axes: (cart. coord. in units of alat)
               a(1) = (  -0.500000   0.000000   0.500000 )  
               a(2) = (   0.000000   0.500000   0.500000 )  
               a(3) = (  -0.500000   0.500000   0.000000 )  

     reciprocal axes: (cart. coord. in units 2 pi/alat)
               b(1) = ( -1.000000 -1.000000  1.000000 )  
               b(2) = (  1.000000  1.000000  1.000000 )  
               b(3) = ( -1.000000  1.000000 -1.000000 )  


     PseudoPot. # 1 for Al read from file:
     /Users/zhy/Aluminum-from-First-Principles/Al.pz-vbc.UPF
     MD5 check sum: f06ceae8da0fe5c02c98e3688433298c
     Pseudo is Norm-conserving, Zval =  3.0
     Generated by new atomic code, or converted to UPF format
     Using radial grid of  171 points,  2 beta functions with: 
                l(1) =   0
                l(2) =   1

     atomic species   valence    mass     pseudopotential
     Al                3.00    26.98200     Al( 1.00)

     48 Sym. Ops., with inversion, found



   Cartesian axes

     site n.     atom                  positions (alat units)
         1        Al     tau(   1) = (   0.0000000   0.0000000   0.0000000  )

     number of k points=    72  Methfessel-Paxton smearing, width (Ry)=  0.0100
                       cart. coord. in units 2pi/alat
        k(    1) = (   0.0000000   0.0000000   0.0000000), wk =   0.0011574
        k(    2) = (  -0.0833333   0.0833333  -0.0833333), wk =   0.0092593
        k(    3) = (  -0.1666667   0.1666667  -0.1666667), wk =   0.0092593
        k(    4) = (  -0.2500000   0.2500000  -0.2500000), wk =   0.0092593
        k(    5) = (  -0.3333333   0.3333333  -0.3333333), wk =   0.0092593
        k(    6) = (  -0.4166667   0.4166667  -0.4166667), wk =   0.0092593
        k(    7) = (   0.5000000  -0.5000000   0.5000000), wk =   0.0046296
        k(    8) = (   0.0000000   0.1666667   0.0000000), wk =   0.0069444
        k(    9) = (  -0.0833333   0.2500000  -0.0833333), wk =   0.0277778
        k(   10) = (  -0.1666667   0.3333333  -0.1666667), wk =   0.0277778
        k(   11) = (  -0.2500000   0.4166667  -0.2500000), wk =   0.0277778
        k(   12) = (  -0.3333333   0.5000000  -0.3333333), wk =   0.0277778
        k(   13) = (   0.5833333  -0.4166667   0.5833333), wk =   0.0277778
        k(   14) = (   0.5000000  -0.3333333   0.5000000), wk =   0.0277778
        k(   15) = (   0.4166667  -0.2500000   0.4166667), wk =   0.0277778
        k(   16) = (   0.3333333  -0.1666667   0.3333333), wk =   0.0277778
        k(   17) = (   0.2500000  -0.0833333   0.2500000), wk =   0.0277778
        k(   18) = (   0.1666667  -0.0000000   0.1666667), wk =   0.0138889
        k(   19) = (   0.0000000   0.3333333   0.0000000), wk =   0.0069444
        k(   20) = (  -0.0833333   0.4166667  -0.0833333), wk =   0.0277778
        k(   21) = (  -0.1666667   0.5000000  -0.1666667), wk =   0.0277778
        k(   22) = (  -0.2500000   0.5833333  -0.2500000), wk =   0.0277778
        k(   23) = (   0.6666667  -0.3333333   0.6666667), wk =   0.0277778
        k(   24) = (   0.5833333  -0.2500000   0.5833333), wk =   0.0277778
        k(   25) = (   0.5000000  -0.1666667   0.5000000), wk =   0.0277778
        k(   26) = (   0.4166667  -0.0833333   0.4166667), wk =   0.0277778
        k(   27) = (   0.3333333   0.0000000   0.3333333), wk =   0.0138889
        k(   28) = (   0.0000000   0.5000000   0.0000000), wk =   0.0069444
        k(   29) = (  -0.0833333   0.5833333  -0.0833333), wk =   0.0277778
        k(   30) = (  -0.1666667   0.6666667  -0.1666667), wk =   0.0277778
        k(   31) = (   0.7500000  -0.2500000   0.7500000), wk =   0.0277778
        k(   32) = (   0.6666667  -0.1666667   0.6666667), wk =   0.0277778
        k(   33) = (   0.5833333  -0.0833333   0.5833333), wk =   0.0277778
        k(   34) = (   0.5000000   0.0000000   0.5000000), wk =   0.0138889
        k(   35) = (   0.0000000   0.6666667   0.0000000), wk =   0.0069444
        k(   36) = (  -0.0833333   0.7500000  -0.0833333), wk =   0.0277778
        k(   37) = (   0.8333333  -0.1666667   0.8333333), wk =   0.0277778
        k(   38) = (   0.7500000  -0.0833333   0.7500000), wk =   0.0277778
        k(   39) = (   0.6666667   0.0000000   0.6666667), wk =   0.0138889
        k(   40) = (   0.0000000   0.8333333   0.0000000), wk =   0.0069444
        k(   41) = (   0.9166667  -0.0833333   0.9166667), wk =   0.0277778
        k(   42) = (   0.8333333   0.0000000   0.8333333), wk =   0.0138889
        k(   43) = (   0.0000000  -1.0000000   0.0000000), wk =   0.0034722
        k(   44) = (  -0.1666667   0.3333333   0.0000000), wk =   0.0277778
        k(   45) = (  -0.2500000   0.4166667  -0.0833333), wk =   0.0555556
        k(   46) = (  -0.3333333   0.5000000  -0.1666667), wk =   0.0555556
        k(   47) = (   0.5833333  -0.4166667   0.7500000), wk =   0.0555556
        k(   48) = (   0.5000000  -0.3333333   0.6666667), wk =   0.0277778
        k(   49) = (  -0.1666667   0.5000000   0.0000000), wk =   0.0277778
        k(   50) = (  -0.2500000   0.5833333  -0.0833333), wk =   0.0555556
        k(   51) = (   0.6666667  -0.3333333   0.8333333), wk =   0.0555556
        k(   52) = (   0.5833333  -0.2500000   0.7500000), wk =   0.0555556
        k(   53) = (   0.5000000  -0.1666667   0.6666667), wk =   0.0555556
        k(   54) = (   0.4166667  -0.0833333   0.5833333), wk =   0.0555556
        k(   55) = (   0.3333333   0.0000000   0.5000000), wk =   0.0277778
        k(   56) = (  -0.1666667   0.6666667  -0.0000000), wk =   0.0277778
        k(   57) = (   0.7500000  -0.2500000   0.9166667), wk =   0.0555556
        k(   58) = (   0.6666667  -0.1666667   0.8333333), wk =   0.0555556
        k(   59) = (   0.5833333  -0.0833333   0.7500000), wk =   0.0555556
        k(   60) = (   0.5000000   0.0000000   0.6666667), wk =   0.0277778
        k(   61) = (   0.8333333  -0.1666667   1.0000000), wk =   0.0277778
        k(   62) = (   0.7500000  -0.0833333   0.9166667), wk =   0.0555556
        k(   63) = (   0.6666667   0.0000000   0.8333333), wk =   0.0277778
        k(   64) = (  -0.1666667  -1.0000000   0.0000000), wk =   0.0138889
        k(   65) = (   0.6666667  -0.3333333   1.0000000), wk =   0.0277778
        k(   66) = (   0.5833333  -0.2500000   0.9166667), wk =   0.0555556
        k(   67) = (   0.5000000  -0.1666667   0.8333333), wk =   0.0277778
        k(   68) = (   0.6666667  -0.1666667   1.0000000), wk =   0.0277778
        k(   69) = (   0.5833333  -0.0833333   0.9166667), wk =   0.0555556
        k(   70) = (   0.5000000   0.0000000   0.8333333), wk =   0.0277778
        k(   71) = (  -0.3333333  -1.0000000   0.0000000), wk =   0.0138889
        k(   72) = (  -0.5000000  -1.0000000   0.0000000), wk =   0.0069444

     Dense  grid:     3719 G-vectors     FFT dimensions: (  24,  24,  24)

     Estimated max dynamical RAM per process >       3.01 MB

     Estimated total dynamical RAM >       6.01 MB

     Initial potential from superposition of free atoms

     starting charge       2.9979, renormalised to       3.0000

     negative rho (up, down):  5.429E-05 0.000E+00
     Starting wfcs are    4 randomized atomic wfcs +    2 random wfcs

     total cpu time spent up to now is        0.2 secs

     Self-consistent Calculation

     iteration #  1     ecut=    40.00 Ry     beta= 0.70
     Davidson diagonalization with overlap
     ethr =  1.00E-02,  avg # of iterations =  5.5

     Threshold (ethr) on eigenvalues was too large:
     Diagonalizing with lowered threshold

     Davidson diagonalization with overlap
     ethr =  1.87E-04,  avg # of iterations =  2.2

     negative rho (up, down):  1.402E-05 0.000E+00

     total cpu time spent up to now is        0.5 secs

     total energy              =      -4.19032403 Ry
     estimated scf accuracy    <       0.00560878 Ry

     iteration #  2     ecut=    40.00 Ry     beta= 0.70
     Davidson diagonalization with overlap
     ethr =  1.87E-04,  avg # of iterations =  1.1

     total cpu time spent up to now is        0.6 secs

     total energy              =      -4.19035630 Ry
     estimated scf accuracy    <       0.00042722 Ry

     iteration #  3     ecut=    40.00 Ry     beta= 0.70
     Davidson diagonalization with overlap
     ethr =  1.42E-05,  avg # of iterations =  2.3

     total cpu time spent up to now is        0.7 secs

     total energy              =      -4.19035972 Ry
     estimated scf accuracy    <       0.00000031 Ry

     iteration #  4     ecut=    40.00 Ry     beta= 0.70
     Davidson diagonalization with overlap
     ethr =  1.02E-08,  avg # of iterations =  2.1

     total cpu time spent up to now is        0.8 secs

     End of self-consistent calculation

          k = 0.0000 0.0000 0.0000 (   459 PWs)   bands (ev):

    -3.3329  20.5278  20.5278  21.6201  21.6201  21.6201

          k =-0.0833 0.0833-0.0833 (   495 PWs)   bands (ev):

    -3.1404  17.8087  19.8573  19.8573  22.4463  22.5730

          k =-0.1667 0.1667-0.1667 (   483 PWs)   bands (ev):

    -2.5645  14.4618  19.1243  19.1243  22.3403  23.6633

          k =-0.2500 0.2500-0.2500 (   483 PWs)   bands (ev):

    -1.6121  11.2836  18.6737  18.6737  22.1604  22.5319

          k =-0.3333 0.3333-0.3333 (   468 PWs)   bands (ev):

    -0.2934   8.3598  18.5303  18.5303  21.1435  21.1435

          k =-0.4167 0.4167-0.4167 (   471 PWs)   bands (ev):

     1.3780   5.7223  18.6955  18.6955  20.0305  20.0305

          k = 0.5000-0.5000 0.5000 (   464 PWs)   bands (ev):

     3.3252   3.4529  19.0529  19.0529  19.3548  19.3549

          k = 0.0000 0.1667 0.0000 (   487 PWs)   bands (ev):

    -3.0762  18.6829  18.6830  19.0700  21.1008  23.8403

          k =-0.0833 0.2500-0.0833 (   476 PWs)   bands (ev):

    -2.6282  15.6589  17.8013  19.1273  21.4549  22.7409

          k =-0.1667 0.3333-0.1667 (   481 PWs)   bands (ev):

    -1.8017  12.4483  17.2322  18.7755  20.5327  23.3584

          k =-0.2500 0.4167-0.2500 (   473 PWs)   bands (ev):

    -0.6057   9.4501  16.9784  18.5790  18.9916  23.4307

          k =-0.3333 0.5000-0.3333 (   472 PWs)   bands (ev):

     0.9472   6.7226  17.0403  17.7364  18.6754  22.2317

          k = 0.5833-0.4167 0.5833 (   466 PWs)   bands (ev):

     2.8404   4.2941  16.8012  17.4184  19.0921  21.3271

          k = 0.5000-0.3333 0.5000 (   464 PWs)   bands (ev):

     2.1733   5.0679  16.1931  18.1114  19.8328  20.7404

          k = 0.4167-0.2500 0.4167 (   469 PWs)   bands (ev):

     0.3908   7.5978  15.9146  19.1025  20.4908  20.8892

          k = 0.3333-0.1667 0.3333 (   475 PWs)   bands (ev):

    -1.0447  10.4142  15.9682  20.1768  20.7741  22.2349

          k = 0.2500-0.0833 0.2500 (   477 PWs)   bands (ev):

    -2.1188  13.4692  16.3665  20.7131  22.0169  23.2035

          k = 0.1667-0.0000 0.1667 (   485 PWs)   bands (ev):

    -2.8200  16.4274  17.3533  21.0267  21.8583  23.0132

          k = 0.0000 0.3333 0.0000 (   479 PWs)   bands (ev):

    -2.3094  16.7981  16.7981  17.0104  19.8964  20.3795

          k =-0.0833 0.4167-0.0833 (   478 PWs)   bands (ev):

    -1.6117  13.8620  16.1161  17.4582  18.2371  20.4227

          k =-0.1667 0.5000-0.1667 (   471 PWs)   bands (ev):

    -0.5428  10.8472  15.7527  16.5001  17.4144  22.2225

          k =-0.2500 0.5833-0.2500 (   462 PWs)   bands (ev):

     0.8855   8.0545  15.1113  15.7061  17.4500  24.4415

          k = 0.6667-0.3333 0.6667 (   468 PWs)   bands (ev):

     2.6577   5.5409  14.0478  15.9762  17.7851  23.7771

          k = 0.5833-0.2500 0.5833 (   464 PWs)   bands (ev):

     3.3218   4.7677  13.3223  16.5638  18.4487  23.0870

          k = 0.5000-0.1667 0.5000 (   461 PWs)   bands (ev):

     1.4394   7.1680  12.9475  17.4687  19.4377  22.7130

          k = 0.4167-0.0833 0.4167 (   473 PWs)   bands (ev):

    -0.1061   9.8187  12.9622  18.6844  20.7312  22.6461

          k = 0.3333 0.0000 0.3333 (   475 PWs)   bands (ev):

    -1.2963  12.3115  13.7398  20.1760  22.2765  22.5184

          k = 0.0000 0.5000 0.0000 (   480 PWs)   bands (ev):

    -1.0442  15.3008  15.3245  15.3245  16.0772  18.7720

          k =-0.0833 0.5833-0.0833 (   465 PWs)   bands (ev):

    -0.1058  12.4886  14.2213  14.8532  16.1094  19.2803

          k =-0.1667 0.6667-0.1667 (   467 PWs)   bands (ev):

     1.1928   9.6881  12.6967  14.6992  16.2820  21.2790

          k = 0.7500-0.2500 0.7500 (   464 PWs)   bands (ev):

     2.8358   7.1157  11.5054  14.8613  16.5619  23.8210

          k = 0.6667-0.1667 0.6667 (   461 PWs)   bands (ev):

     4.7005   4.9271  10.6666  15.3403  17.1410  25.7708

          k = 0.5833-0.0833 0.5833 (   467 PWs)   bands (ev):

     2.8400   7.0392  10.2296  16.1378  18.0457  25.2990

          k = 0.5000 0.0000 0.5000 (   481 PWs)   bands (ev):

     1.1935   9.0954  10.6175  17.2545  19.2603  24.9846

          k = 0.0000 0.6667 0.0000 (   472 PWs)   bands (ev):

     0.7000  12.2203  14.0567  14.2751  14.2751  17.7660

          k =-0.0833 0.7500-0.0833 (   465 PWs)   bands (ev):

     1.8643  10.5374  11.6021  14.0146  15.1697  18.4660

          k = 0.8333-0.1667 0.8333 (   466 PWs)   bands (ev):

     3.3679   8.8854   9.3707  14.0696  15.5739  20.6828

          k = 0.7500-0.0833 0.7500 (   471 PWs)   bands (ev):

     5.1556   6.6327   8.3612  14.4404  16.0965  23.4655

          k = 0.6667 0.0000 0.6667 (   466 PWs)   bands (ev):

     4.5746   6.8112   8.2525  15.1289  16.9163  26.4379

          k = 0.0000 0.8333 0.0000 (   460 PWs)   bands (ev):

     2.8872   8.7658  13.3049  13.6480  13.6480  17.1173

          k = 0.9167-0.0833 0.9167 (   462 PWs)   bands (ev):

     4.2205   7.3518  11.1285  13.5967  14.6955  18.0422

          k = 0.8333 0.0000 0.8333 (   466 PWs)   bands (ev):

     5.4488   6.7174   8.8051  13.8603  15.3340  20.4796

          k = 0.0000-1.0000 0.0000 (   468 PWs)   bands (ev):

     4.9963   6.2347  13.0535  13.4394  13.4394  16.8937

          k =-0.1667 0.3333 0.0000 (   473 PWs)   bands (ev):

    -2.0552  14.3807  15.5519  19.8343  20.3079  21.5960

          k =-0.2500 0.4167-0.0833 (   476 PWs)   bands (ev):

    -1.1074  11.6508  14.6787  18.6072  19.9952  22.8240

          k =-0.3333 0.5000-0.1667 (   468 PWs)   bands (ev):

     0.2048   8.7974  14.4685  17.1381  19.9507  22.6741

          k = 0.5833-0.4167 0.7500 (   465 PWs)   bands (ev):

     1.8678   6.1874  14.6172  15.9873  20.1446  21.5887

          k = 0.5000-0.3333 0.6667 (   462 PWs)   bands (ev):

     3.7845   3.9532  14.9750  15.2954  20.4612  20.9619

          k =-0.1667 0.5000 0.0000 (   471 PWs)   bands (ev):

    -0.7932  12.7745  14.0472  16.3210  18.3080  20.3267

          k =-0.2500 0.5833-0.0833 (   466 PWs)   bands (ev):

     0.3910  10.2702  13.3341  14.7222  18.7564  21.8468

          k = 0.6667-0.3333 0.8333 (   463 PWs)   bands (ev):

     1.9278   7.6307  13.1544  13.6122  18.9738  23.7915

          k = 0.5833-0.2500 0.7500 (   468 PWs)   bands (ev):

     3.7959   5.2440  12.3920  13.7961  19.4201  23.2360

          k = 0.5000-0.1667 0.6667 (   466 PWs)   bands (ev):

     3.1410   5.9936  11.8052  14.5011  20.1587  22.6414

          k = 0.4167-0.0833 0.5833 (   471 PWs)   bands (ev):

     1.3777   8.4313  11.6038  15.5517  21.1652  22.3078

          k = 0.3333 0.0000 0.5000 (   472 PWs)   bands (ev):

    -0.0438  10.7021  12.1969  16.9279  21.7215  22.2808

          k =-0.1667 0.6667-0.0000 (   469 PWs)   bands (ev):

     0.9467  11.6231  12.3510  13.0965  17.1779  19.3762

          k = 0.7500-0.2500 0.9167 (   468 PWs)   bands (ev):

     2.3511   9.3348  11.0134  12.5344  17.8747  21.1004

          k = 0.6667-0.1667 0.8333 (   469 PWs)   bands (ev):

     4.0843   6.9241   9.9598  12.7358  18.3308  23.6713

          k = 0.5833-0.0833 0.7500 (   465 PWs)   bands (ev):

     4.7468   6.1117   9.2875  13.3326  19.0085  25.2648

          k = 0.5000 0.0000 0.6667 (   471 PWs)   bands (ev):

     2.8996   7.9513   9.4404  14.2769  19.9723  24.5291

          k = 0.8333-0.1667 1.0000 (   463 PWs)   bands (ev):

     3.1278   8.9914  10.9312  12.3511  16.4946  18.7690

          k = 0.7500-0.0833 0.9167 (   468 PWs)   bands (ev):

     4.6907   7.8025   8.9287  12.0597  17.4250  20.7078

          k = 0.6667 0.0000 0.8333 (   473 PWs)   bands (ev):

     6.1291   6.6235   7.5683  12.5047  18.1112  23.5154

          k =-0.1667-1.0000 0.0000 (   464 PWs)   bands (ev):

     5.2225   6.4814  10.7004  12.1236  16.2665  18.5608

          k = 0.6667-0.3333 1.0000 (   467 PWs)   bands (ev):

     1.6833   9.5540  11.0290  13.2142  20.6443  22.1190

          k = 0.5833-0.2500 0.9167 (   470 PWs)   bands (ev):

     3.3181   7.5011  10.6346  12.0537  21.4007  22.8328

          k = 0.5000-0.1667 0.8333 (   474 PWs)   bands (ev):

     5.1573   5.3989  10.8429  11.4477  21.7302  22.3869

          k = 0.6667-0.1667 1.0000 (   471 PWs)   bands (ev):

     3.8464   8.8659   9.5661  10.5712  19.9718  21.6601

          k = 0.5833-0.0833 0.9167 (   467 PWs)   bands (ev):

     5.6226   7.0267   8.7649  10.3336  21.0064  23.7512

          k = 0.5000 0.0000 0.8333 (   466 PWs)   bands (ev):

     5.0319   7.2666   8.6927  10.9760  21.7952  23.8958

          k =-0.3333-1.0000 0.0000 (   470 PWs)   bands (ev):

     5.9021   7.1987   8.6367  10.2307  19.7455  21.4861

          k =-0.5000-1.0000 0.0000 (   464 PWs)   bands (ev):

     7.0386   7.0386   8.0227   8.9855  23.6767  23.6767

     the Fermi energy is     7.7211 ev

!    total energy              =      -4.19035976 Ry
     estimated scf accuracy    <          5.1E-09 Ry
     smearing contrib. (-TS)   =       0.00004336 Ry
     internal energy E=F+TS    =      -4.19040312 Ry

     The total energy is F=E-TS. E is the sum of the following terms:
     one-electron contribution =       2.84491822 Ry
     hartree contribution      =       0.00927533 Ry
     xc contribution           =      -1.61515468 Ry
     ewald contribution        =      -5.42944199 Ry

     convergence has been achieved in   4 iterations

     Forces acting on atoms (cartesian axes, Ry/au):

     atom    1 type  1   force =     0.00000000    0.00000000    0.00000000

     Total force =     0.000000     Total SCF correction =     0.000000


     Computing stress (Cartesian axis) and pressure

          total   stress  (Ry/bohr**3)                   (kbar)     P=      -34.63
  -0.00023540   0.00000000   0.00000000          -34.63        0.00        0.00
   0.00000000  -0.00023540  -0.00000000            0.00      -34.63       -0.00
   0.00000000  -0.00000000  -0.00023540            0.00       -0.00      -34.63


     Writing all to output data dir /Users/zhy/Aluminum-from-First-Principles/lda-convergence-runs/kmesh/ecut-040.0-ry_k-12x12x12_degauss-0.010-ry/qe-out/lda_kmesh_ecut-040p0-ry_k-12x12x12_degauss-0p010-ry.save/ :
     XML data file, charge density, pseudopotentials, collected wavefunctions

     init_run     :      0.14s CPU      0.16s WALL (       1 calls)
     electrons    :      0.61s CPU      0.65s WALL (       1 calls)
     forces       :      0.00s CPU      0.00s WALL (       1 calls)
     stress       :      0.02s CPU      0.02s WALL (       1 calls)

     Called by init_run:
     wfcinit      :      0.04s CPU      0.05s WALL (       1 calls)
     potinit      :      0.00s CPU      0.00s WALL (       1 calls)
     hinit0       :      0.10s CPU      0.10s WALL (       1 calls)

     Called by electrons:
     c_bands      :      0.52s CPU      0.54s WALL (       5 calls)
     sum_band     :      0.09s CPU      0.10s WALL (       5 calls)
     v_of_rho     :      0.00s CPU      0.00s WALL (       5 calls)
     mix_rho      :      0.00s CPU      0.00s WALL (       5 calls)

     Called by c_bands:
     init_us_2    :      0.01s CPU      0.01s WALL (     936 calls)
     cegterg      :      0.51s CPU      0.53s WALL (     360 calls)

     Called by *egterg:
     cdiaghg      :      0.03s CPU      0.03s WALL (    1232 calls)
     h_psi        :      0.48s CPU      0.50s WALL (    1376 calls)
     g_psi        :      0.00s CPU      0.00s WALL (     944 calls)

     Called by h_psi:
     h_psi:calbec :      0.01s CPU      0.01s WALL (    1376 calls)
     vloc_psi     :      0.47s CPU      0.49s WALL (    1376 calls)
     add_vuspsi   :      0.00s CPU      0.00s WALL (    1376 calls)

     General routines
     calbec       :      0.01s CPU      0.01s WALL (    2600 calls)
     fft          :      0.10s CPU      0.10s WALL (      20 calls)
     ffts         :      0.00s CPU      0.00s WALL (       5 calls)
     fftw         :      0.50s CPU      0.52s WALL (   14490 calls)

     Parallel routines

     PWSCF        :      0.79s CPU      0.87s WALL


   This run was terminated on:   1:30:26  26Sep2026            

=------------------------------------------------------------------------------=
   JOB DONE.
=------------------------------------------------------------------------------=
Note: The following floating-point exceptions are signalling: IEEE_INVALID_FLAG IEEE_DIVIDE_BY_ZERO IEEE_UNDERFLOW_FLAG
Note: The following floating-point exceptions are signalling: IEEE_UNDERFLOW_FLAG
