
     Program PWSCF v.7.6 starts on 22Sep2026 at 23:45:16 

     This program is part of the open-source Quantum ESPRESSO suite
     for quantum simulation of materials; please cite
         "P. Giannozzi et al., J. Phys.:Condens. Matter 21 395502 (2009);
         "P. Giannozzi et al., J. Phys.:Condens. Matter 29 465901 (2017);
         "P. Giannozzi et al., J. Chem. Phys. 152 154105 (2020);
          URL http://www.quantum-espresso.org", 
     in publications or presentations arising from this work. More details at
     http://www.quantum-espresso.org/quote

     Parallel version (MPI), running on     2 processors

     MPI processes distributed on     1 nodes
     0 MiB available memory on the printing compute node when the environment starts

     Reading input from Al.scf.inp

     Current dimensions of program PWSCF are:
     Max number of different atomic species (ntypx) = 10
     Max number of k-points (npk) =  40000
     Max angular momentum in pseudopotentials (lmaxx) =  4

     R & G space division:  proc/nbgrp/npool/nimage =       2
     Subspace diagonalization in iterative solution of the eigenvalue problem:
     a serial algorithm will be used


     Parallelization info
     --------------------
     sticks:   dense  smooth     PW     G-vecs:    dense   smooth      PW
     Min         219     111     42                 3115     1114     264
     Max         220     112     43                 3116     1115     267
     Sum         439     223     85                 6231     2229     531

     Using Slab Decomposition



     bravais-lattice index     =            2
     lattice parameter (alat)  =       9.0000  a.u.
     unit-cell volume          =     182.2500 (a.u.)^3
     number of atoms/cell      =            1
     number of atomic types    =            1
     number of electrons       =         3.00
     number of Kohn-Sham states=            6
     kinetic-energy cutoff     =      20.0000  Ry
     charge density cutoff     =     160.0000  Ry
     scf convergence threshold =      1.0E-08
     mixing beta               =       0.7000
     number of iterations used =            8  plain     mixing
     Exchange-correlation= SLA  PW   PBE  PBE
                           (   1   4   3   4   0   0   0)

     celldm(1)=   9.000000  celldm(2)=   0.000000  celldm(3)=   0.000000
     celldm(4)=   0.000000  celldm(5)=   0.000000  celldm(6)=   0.000000

     crystal axes: (cart. coord. in units of alat)
               a(1) = (  -0.500000   0.000000   0.500000 )  
               a(2) = (   0.000000   0.500000   0.500000 )  
               a(3) = (  -0.500000   0.500000   0.000000 )  

     reciprocal axes: (cart. coord. in units 2 pi/alat)
               b(1) = ( -1.000000 -1.000000  1.000000 )  
               b(2) = (  1.000000  1.000000  1.000000 )  
               b(3) = ( -1.000000  1.000000 -1.000000 )  


     PseudoPot. # 1 for Al read from file:
     /Users/zhy/Aluminum-from-First-Principles/Al.pbe-n-van.UPF
     MD5 check sum: cbc97ad259b400557db688b98a6ada97
     Pseudo is Ultrasoft + core correction, Zval =  3.0
     Generated by new atomic code, or converted to UPF format
     Using radial grid of  893 points,  2 beta functions with: 
                l(1) =   0
                l(2) =   1
     Q(r) pseudized with  8 coefficients,  rinner =    0.900   0.900   0.900


     atomic species   valence    mass     pseudopotential
     Al                3.00    26.98200     Al( 1.00)

     48 Sym. Ops., with inversion, found



   Cartesian axes

     site n.     atom                  positions (alat units)
         1        Al     tau(   1) = (   0.0000000   0.0000000   0.0000000  )

     number of k points=    47  Methfessel-Paxton smearing, width (Ry)=  0.0500
                       cart. coord. in units 2pi/alat
        k(    1) = (   0.0000000   0.0000000   0.0000000), wk =   0.0020000
        k(    2) = (  -0.1000000   0.1000000  -0.1000000), wk =   0.0160000
        k(    3) = (  -0.2000000   0.2000000  -0.2000000), wk =   0.0160000
        k(    4) = (  -0.3000000   0.3000000  -0.3000000), wk =   0.0160000
        k(    5) = (  -0.4000000   0.4000000  -0.4000000), wk =   0.0160000
        k(    6) = (   0.5000000  -0.5000000   0.5000000), wk =   0.0080000
        k(    7) = (   0.0000000   0.2000000   0.0000000), wk =   0.0120000
        k(    8) = (  -0.1000000   0.3000000  -0.1000000), wk =   0.0480000
        k(    9) = (  -0.2000000   0.4000000  -0.2000000), wk =   0.0480000
        k(   10) = (  -0.3000000   0.5000000  -0.3000000), wk =   0.0480000
        k(   11) = (   0.6000000  -0.4000000   0.6000000), wk =   0.0480000
        k(   12) = (   0.5000000  -0.3000000   0.5000000), wk =   0.0480000
        k(   13) = (   0.4000000  -0.2000000   0.4000000), wk =   0.0480000
        k(   14) = (   0.3000000  -0.1000000   0.3000000), wk =   0.0480000
        k(   15) = (   0.2000000   0.0000000   0.2000000), wk =   0.0240000
        k(   16) = (   0.0000000   0.4000000   0.0000000), wk =   0.0120000
        k(   17) = (  -0.1000000   0.5000000  -0.1000000), wk =   0.0480000
        k(   18) = (  -0.2000000   0.6000000  -0.2000000), wk =   0.0480000
        k(   19) = (   0.7000000  -0.3000000   0.7000000), wk =   0.0480000
        k(   20) = (   0.6000000  -0.2000000   0.6000000), wk =   0.0480000
        k(   21) = (   0.5000000  -0.1000000   0.5000000), wk =   0.0480000
        k(   22) = (   0.4000000   0.0000000   0.4000000), wk =   0.0240000
        k(   23) = (   0.0000000   0.6000000   0.0000000), wk =   0.0120000
        k(   24) = (  -0.1000000   0.7000000  -0.1000000), wk =   0.0480000
        k(   25) = (   0.8000000  -0.2000000   0.8000000), wk =   0.0480000
        k(   26) = (   0.7000000  -0.1000000   0.7000000), wk =   0.0480000
        k(   27) = (   0.6000000   0.0000000   0.6000000), wk =   0.0240000
        k(   28) = (   0.0000000   0.8000000   0.0000000), wk =   0.0120000
        k(   29) = (   0.9000000  -0.1000000   0.9000000), wk =   0.0480000
        k(   30) = (   0.8000000   0.0000000   0.8000000), wk =   0.0240000
        k(   31) = (   0.0000000  -1.0000000   0.0000000), wk =   0.0060000
        k(   32) = (  -0.2000000   0.4000000   0.0000000), wk =   0.0480000
        k(   33) = (  -0.3000000   0.5000000  -0.1000000), wk =   0.0960000
        k(   34) = (   0.6000000  -0.4000000   0.8000000), wk =   0.0960000
        k(   35) = (   0.5000000  -0.3000000   0.7000000), wk =   0.0480000
        k(   36) = (  -0.2000000   0.6000000   0.0000000), wk =   0.0480000
        k(   37) = (   0.7000000  -0.3000000   0.9000000), wk =   0.0960000
        k(   38) = (   0.6000000  -0.2000000   0.8000000), wk =   0.0960000
        k(   39) = (   0.5000000  -0.1000000   0.7000000), wk =   0.0960000
        k(   40) = (   0.4000000   0.0000000   0.6000000), wk =   0.0480000
        k(   41) = (   0.8000000  -0.2000000   1.0000000), wk =   0.0480000
        k(   42) = (   0.7000000  -0.1000000   0.9000000), wk =   0.0960000
        k(   43) = (   0.6000000   0.0000000   0.8000000), wk =   0.0480000
        k(   44) = (  -0.2000000  -1.0000000   0.0000000), wk =   0.0240000
        k(   45) = (   0.6000000  -0.2000000   1.0000000), wk =   0.0480000
        k(   46) = (   0.5000000  -0.1000000   0.9000000), wk =   0.0480000
        k(   47) = (  -0.4000000  -1.0000000   0.0000000), wk =   0.0240000

     Dense  grid:     6231 G-vectors     FFT dimensions: (  25,  25,  25)

     Smooth grid:     2229 G-vectors     FFT dimensions: (  20,  20,  20)

     Estimated max dynamical RAM per process >       3.68 MB

     Estimated total dynamical RAM >       7.35 MB

     Initial potential from superposition of free atoms

     starting charge       2.9975, renormalised to       3.0000
     Starting wfcs are    4 randomized atomic wfcs +    2 random wfcs

     total cpu time spent up to now is        0.2 secs

     Self-consistent Calculation

     iteration #  1     ecut=    20.00 Ry     beta= 0.70
     Davidson diagonalization with overlap
     ethr =  1.00E-02,  avg # of iterations =  5.0

     Threshold (ethr) on eigenvalues was too large:
     Diagonalizing with lowered threshold

     Davidson diagonalization with overlap
     ethr =  1.89E-04,  avg # of iterations =  2.7

     total cpu time spent up to now is        0.3 secs

     total energy              =     -12.41583305 Ry
     estimated scf accuracy    <       0.00562840 Ry

     iteration #  2     ecut=    20.00 Ry     beta= 0.70
     Davidson diagonalization with overlap
     ethr =  1.88E-04,  avg # of iterations =  1.0

     total cpu time spent up to now is        0.3 secs

     total energy              =     -12.41595053 Ry
     estimated scf accuracy    <       0.00026292 Ry

     iteration #  3     ecut=    20.00 Ry     beta= 0.70
     Davidson diagonalization with overlap
     c_bands:  1 eigenvalues not converged
     ethr =  8.76E-06,  avg # of iterations =  3.5

     total cpu time spent up to now is        0.4 secs

     total energy              =     -12.41597496 Ry
     estimated scf accuracy    <       0.00000084 Ry

     iteration #  4     ecut=    20.00 Ry     beta= 0.70
     Davidson diagonalization with overlap
     ethr =  2.80E-08,  avg # of iterations =  2.9

     total cpu time spent up to now is        0.4 secs

     total energy              =     -12.41597623 Ry
     estimated scf accuracy    <       0.00000005 Ry

     iteration #  5     ecut=    20.00 Ry     beta= 0.70
     Davidson diagonalization with overlap
     ethr =  1.75E-09,  avg # of iterations =  1.3

     total cpu time spent up to now is        0.4 secs

     End of self-consistent calculation

          k = 0.0000 0.0000 0.0000 (   283 PWs)   bands (ev):

    -4.4972  12.5167  12.5167  12.5167  13.9754  13.9754

          k =-0.1000 0.1000-0.1000 (   280 PWs)   bands (ev):

    -4.3028  10.4501  12.0389  12.0389  14.2811  14.6686

          k =-0.2000 0.2000-0.2000 (   277 PWs)   bands (ev):

    -3.7216   7.5848  11.4465  11.4465  14.0292  15.1716

          k =-0.3000 0.3000-0.3000 (   286 PWs)   bands (ev):

    -2.7605   4.8903  11.0709  11.0709  13.7850  14.2998

          k =-0.4000 0.4000-0.4000 (   269 PWs)   bands (ev):

    -1.4408   2.5100  10.9310  10.9310  13.4974  13.4974

          k = 0.5000-0.5000 0.5000 (   272 PWs)   bands (ev):

    -0.1740   0.8855  10.9087  10.9087  13.1904  13.7303

          k = 0.0000 0.2000 0.0000 (   279 PWs)   bands (ev):

    -4.2380  11.1176  11.1176  11.7673  12.7269  15.6990

          k =-0.1000 0.3000-0.1000 (   285 PWs)   bands (ev):

    -3.7857   8.6655  10.3934  11.3022  13.0540  14.8082

          k =-0.2000 0.4000-0.2000 (   279 PWs)   bands (ev):

    -2.9505   5.9130   9.9849  10.6625  12.7002  15.1297

          k =-0.3000 0.5000-0.3000 (   273 PWs)   bands (ev):

    -1.7461   3.4233   9.8939  10.0169  12.1796  15.0743

          k = 0.6000-0.4000 0.6000 (   275 PWs)   bands (ev):

    -0.2816   1.3665   9.4139  10.1177  12.2294  14.3195

          k = 0.5000-0.3000 0.5000 (   276 PWs)   bands (ev):

    -0.7714   1.9754   9.0052  10.6158  12.7678  13.9441

          k = 0.4000-0.2000 0.4000 (   275 PWs)   bands (ev):

    -2.1869   4.2176   8.8861  11.3087  13.6941  14.0266

          k = 0.3000-0.1000 0.3000 (   283 PWs)   bands (ev):

    -3.2713   6.8109   9.0865  12.0496  14.5637  14.7923

          k = 0.2000 0.0000 0.2000 (   285 PWs)   bands (ev):

    -3.9795   9.5995   9.6365  12.5418  14.4785  14.7294

          k = 0.0000 0.4000 0.0000 (   291 PWs)   bands (ev):

    -3.4630   9.5618   9.5618  10.0329  11.0711  12.8666

          k =-0.1000 0.5000-0.1000 (   282 PWs)   bands (ev):

    -2.7560   7.2225   9.0483   9.1955  11.1270  12.6805

          k =-0.2000 0.6000-0.2000 (   280 PWs)   bands (ev):

    -1.6746   4.6813   8.1163   8.8656  10.8321  14.4969

          k = 0.7000-0.3000 0.7000 (   271 PWs)   bands (ev):

    -0.2615   2.4588   7.2066   9.0229  10.9269  16.4161

          k = 0.6000-0.2000 0.6000 (   275 PWs)   bands (ev):

     0.2233   1.8595   6.5879   9.5062  11.4359  15.8580

          k = 0.5000-0.1000 0.5000 (   275 PWs)   bands (ev):

    -1.2392   3.9102   6.3124  10.2899  12.3237  15.6303

          k = 0.4000 0.0000 0.4000 (   269 PWs)   bands (ev):

    -2.4384   6.3460   6.4244  11.2961  13.5477  15.6835

          k = 0.0000 0.6000 0.0000 (   274 PWs)   bands (ev):

    -2.1775   7.4520   8.4218   8.4218   9.8220  10.7956

          k =-0.1000 0.7000-0.1000 (   276 PWs)   bands (ev):

    -1.2236   5.8430   6.6870   8.1314   9.8961  11.6089

          k = 0.8000-0.2000 0.8000 (   273 PWs)   bands (ev):

     0.0847   3.8548   5.2623   8.1836   9.9558  13.8654

          k = 0.7000-0.1000 0.7000 (   278 PWs)   bands (ev):

     1.3353   2.3252   4.4205   8.5732  10.3781  16.3950

          k = 0.6000 0.0000 0.6000 (   276 PWs)   bands (ev):

     0.0595   3.9033   4.0467   9.2945  11.1801  17.5151

          k = 0.0000 0.8000 0.0000 (   278 PWs)   bands (ev):

    -0.3979   4.5268   7.7290   7.7290   9.0593   9.8365

          k = 0.9000-0.1000 0.9000 (   274 PWs)   bands (ev):

     0.7892   3.2469   5.9472   7.6701   9.3427  11.1094

          k = 0.8000 0.0000 0.8000 (   272 PWs)   bands (ev):

     2.1015   2.4250   3.9997   7.9548   9.6832  13.6512

          k = 0.0000-1.0000 0.0000 (   286 PWs)   bands (ev):

     1.7808   1.9294   7.4929   7.4929   8.7995   9.5384

          k =-0.2000 0.4000 0.0000 (   288 PWs)   bands (ev):

    -3.2065   8.0090   8.0118  11.0772  13.0760  13.8141

          k =-0.3000 0.5000-0.1000 (   277 PWs)   bands (ev):

    -2.2471   5.3615   7.6874  10.0314  13.0046  14.7404

          k = 0.6000-0.4000 0.8000 (   270 PWs)   bands (ev):

    -0.9320   2.9975   7.6751   9.0932  12.9237  14.2646

          k = 0.5000-0.3000 0.7000 (   272 PWs)   bands (ev):

     0.3365   1.3751   7.7882   8.6500  13.0041  13.8571

          k =-0.2000 0.6000 0.0000 (   279 PWs)   bands (ev):

    -1.9254   6.6779   6.8113   8.2587  11.9012  12.3346

          k = 0.7000-0.3000 0.9000 (   274 PWs)   bands (ev):

    -0.7283   4.3530   6.3987   7.3133  12.0180  14.2118

          k = 0.6000-0.2000 0.8000 (   271 PWs)   bands (ev):

     0.7314   2.3320   5.8051   7.2949  12.2874  15.6144

          k = 0.5000-0.1000 0.7000 (   270 PWs)   bands (ev):

     0.2348   2.9510   5.3261   7.8754  12.8836  15.2971

          k = 0.4000 0.0000 0.6000 (   275 PWs)   bands (ev):

    -1.1716   5.1269   5.2049   8.8336  13.6878  14.9637

          k = 0.8000-0.2000 1.0000 (   276 PWs)   bands (ev):

    -0.1524   4.6552   6.0828   6.5191  11.1791  11.5683

          k = 0.7000-0.1000 0.9000 (   274 PWs)   bands (ev):

     1.2452   3.4347   4.3432   6.4651  11.5328  13.8057

          k = 0.6000 0.0000 0.8000 (   274 PWs)   bands (ev):

     1.6411   3.1650   3.4498   6.9835  12.0567  16.3420

          k =-0.2000-1.0000 0.0000 (   272 PWs)   bands (ev):

     1.9870   2.1781   5.8409   6.1750  10.9374  11.3206

          k = 0.6000-0.2000 1.0000 (   269 PWs)   bands (ev):

     0.5680   4.3106   4.3927   6.0048  14.1204  14.2824

          k = 0.5000-0.1000 0.9000 (   270 PWs)   bands (ev):

     1.8238   2.7933   4.4760   5.4772  14.2370  15.2055

          k =-0.4000-1.0000 0.0000 (   268 PWs)   bands (ev):

     2.4702   2.9191   4.1478   4.8057  14.0464  14.0501

     the Fermi energy is     3.6735 ev

!    total energy              =     -12.41597623 Ry
     estimated scf accuracy    <          2.5E-09 Ry
     smearing contrib. (-TS)   =       0.00097946 Ry
     internal energy E=F+TS    =     -12.41695569 Ry

     The total energy is F=E-TS. E is the sum of the following terms:
     one-electron contribution =       1.95545696 Ry
     hartree contribution      =       0.02476159 Ry
     xc contribution           =      -9.81231211 Ry
     ewald contribution        =      -4.58486213 Ry

     convergence has been achieved in   5 iterations

     Forces acting on atoms (cartesian axes, Ry/au):

     atom    1 type  1   force =     0.00000000    0.00000000    0.00000000

     Total force =     0.000000     Total SCF correction =     0.000000


     Computing stress (Cartesian axis) and pressure

          total   stress  (Ry/bohr**3)                   (kbar)     P=     -117.47
  -0.00079856  -0.00000000  -0.00000000         -117.47       -0.00       -0.00
  -0.00000000  -0.00079856  -0.00000000           -0.00     -117.47       -0.00
   0.00000000  -0.00000000  -0.00079856            0.00       -0.00     -117.47


     Writing all to output data dir /Users/zhy/Aluminum-from-First-Principles/convergence-runs/cutoff-kmesh/ecut-020.0-ry_k-10x10x10_degauss-0.050-ry/qe-out/aluminum_ecut-020p0-ry_k-10x10x10_degauss-0p050-ry.save/ :
     XML data file, charge density, pseudopotentials, collected wavefunctions

     init_run     :      0.16s CPU      0.17s WALL (       1 calls)
     electrons    :      0.23s CPU      0.25s WALL (       1 calls)
     forces       :      0.00s CPU      0.00s WALL (       1 calls)
     stress       :      0.01s CPU      0.01s WALL (       1 calls)

     Called by init_run:
     wfcinit      :      0.02s CPU      0.02s WALL (       1 calls)
     potinit      :      0.08s CPU      0.09s WALL (       1 calls)
     hinit0       :      0.05s CPU      0.05s WALL (       1 calls)

     Called by electrons:
     c_bands      :      0.18s CPU      0.20s WALL (       6 calls)
     sum_band     :      0.04s CPU      0.04s WALL (       6 calls)
     v_of_rho     :      0.01s CPU      0.01s WALL (       6 calls)
     newd         :      0.00s CPU      0.00s WALL (       6 calls)
     mix_rho      :      0.00s CPU      0.00s WALL (       6 calls)

     Called by c_bands:
     init_us_2    :      0.01s CPU      0.01s WALL (     705 calls)
     cegterg      :      0.18s CPU      0.19s WALL (     282 calls)

     Called by *egterg:
     cdiaghg      :      0.02s CPU      0.02s WALL (    1006 calls)
     h_psi        :      0.16s CPU      0.17s WALL (    1100 calls)
     s_psi        :      0.00s CPU      0.00s WALL (    1100 calls)
     g_psi        :      0.00s CPU      0.00s WALL (     771 calls)

     Called by h_psi:
     h_psi:calbec :      0.00s CPU      0.00s WALL (    1100 calls)
     vloc_psi     :      0.15s CPU      0.16s WALL (    1100 calls)
     add_vuspsi   :      0.00s CPU      0.00s WALL (    1100 calls)

     General routines
     calbec       :      0.00s CPU      0.01s WALL (    2181 calls)
     fft          :      0.04s CPU      0.04s WALL (     102 calls)
     ffts         :      0.08s CPU      0.08s WALL (      12 calls)
     fftw         :      0.16s CPU      0.17s WALL (   11022 calls)
     interpolate  :      0.08s CPU      0.08s WALL (       6 calls)

     Parallel routines

     PWSCF        :      0.43s CPU      0.46s WALL


   This run was terminated on:  23:45:16  22Sep2026            

=------------------------------------------------------------------------------=
   JOB DONE.
=------------------------------------------------------------------------------=
Note: The following floating-point exceptions are signalling: IEEE_UNDERFLOW_FLAG
Note: The following floating-point exceptions are signalling: IEEE_INVALID_FLAG IEEE_DIVIDE_BY_ZERO IEEE_UNDERFLOW_FLAG
