
     Program PWSCF v.7.6 starts on 22Sep2026 at 23:45:11 

     This program is part of the open-source Quantum ESPRESSO suite
     for quantum simulation of materials; please cite
         "P. Giannozzi et al., J. Phys.:Condens. Matter 21 395502 (2009);
         "P. Giannozzi et al., J. Phys.:Condens. Matter 29 465901 (2017);
         "P. Giannozzi et al., J. Chem. Phys. 152 154105 (2020);
          URL http://www.quantum-espresso.org", 
     in publications or presentations arising from this work. More details at
     http://www.quantum-espresso.org/quote

     Parallel version (MPI), running on     2 processors

     MPI processes distributed on     1 nodes
     0 MiB available memory on the printing compute node when the environment starts

     Reading input from Al.scf.inp

     Current dimensions of program PWSCF are:
     Max number of different atomic species (ntypx) = 10
     Max number of k-points (npk) =  40000
     Max angular momentum in pseudopotentials (lmaxx) =  4

     R & G space division:  proc/nbgrp/npool/nimage =       2
     Subspace diagonalization in iterative solution of the eigenvalue problem:
     a serial algorithm will be used


     Parallelization info
     --------------------
     sticks:   dense  smooth     PW     G-vecs:    dense   smooth      PW
     Min         168      81     30                 2007      728     165
     Max         169      82     31                 2008      731     166
     Sum         337     163     61                 4015     1459     331

     Using Slab Decomposition



     bravais-lattice index     =            2
     lattice parameter (alat)  =       9.0000  a.u.
     unit-cell volume          =     182.2500 (a.u.)^3
     number of atoms/cell      =            1
     number of atomic types    =            1
     number of electrons       =         3.00
     number of Kohn-Sham states=            6
     kinetic-energy cutoff     =      15.0000  Ry
     charge density cutoff     =     120.0000  Ry
     scf convergence threshold =      1.0E-08
     mixing beta               =       0.7000
     number of iterations used =            8  plain     mixing
     Exchange-correlation= SLA  PW   PBE  PBE
                           (   1   4   3   4   0   0   0)

     celldm(1)=   9.000000  celldm(2)=   0.000000  celldm(3)=   0.000000
     celldm(4)=   0.000000  celldm(5)=   0.000000  celldm(6)=   0.000000

     crystal axes: (cart. coord. in units of alat)
               a(1) = (  -0.500000   0.000000   0.500000 )  
               a(2) = (   0.000000   0.500000   0.500000 )  
               a(3) = (  -0.500000   0.500000   0.000000 )  

     reciprocal axes: (cart. coord. in units 2 pi/alat)
               b(1) = ( -1.000000 -1.000000  1.000000 )  
               b(2) = (  1.000000  1.000000  1.000000 )  
               b(3) = ( -1.000000  1.000000 -1.000000 )  


     PseudoPot. # 1 for Al read from file:
     /Users/zhy/Aluminum-from-First-Principles/Al.pbe-n-van.UPF
     MD5 check sum: cbc97ad259b400557db688b98a6ada97
     Pseudo is Ultrasoft + core correction, Zval =  3.0
     Generated by new atomic code, or converted to UPF format
     Using radial grid of  893 points,  2 beta functions with: 
                l(1) =   0
                l(2) =   1
     Q(r) pseudized with  8 coefficients,  rinner =    0.900   0.900   0.900


     atomic species   valence    mass     pseudopotential
     Al                3.00    26.98200     Al( 1.00)

     48 Sym. Ops., with inversion, found



   Cartesian axes

     site n.     atom                  positions (alat units)
         1        Al     tau(   1) = (   0.0000000   0.0000000   0.0000000  )

     number of k points=    16  Methfessel-Paxton smearing, width (Ry)=  0.0500
                       cart. coord. in units 2pi/alat
        k(    1) = (   0.0000000   0.0000000   0.0000000), wk =   0.0092593
        k(    2) = (  -0.1666667   0.1666667  -0.1666667), wk =   0.0740741
        k(    3) = (  -0.3333333   0.3333333  -0.3333333), wk =   0.0740741
        k(    4) = (   0.5000000  -0.5000000   0.5000000), wk =   0.0370370
        k(    5) = (   0.0000000   0.3333333   0.0000000), wk =   0.0555556
        k(    6) = (  -0.1666667   0.5000000  -0.1666667), wk =   0.2222222
        k(    7) = (   0.6666667  -0.3333333   0.6666667), wk =   0.2222222
        k(    8) = (   0.5000000  -0.1666667   0.5000000), wk =   0.2222222
        k(    9) = (   0.3333333   0.0000000   0.3333333), wk =   0.1111111
        k(   10) = (   0.0000000   0.6666667   0.0000000), wk =   0.0555556
        k(   11) = (   0.8333333  -0.1666667   0.8333333), wk =   0.2222222
        k(   12) = (   0.6666667   0.0000000   0.6666667), wk =   0.1111111
        k(   13) = (   0.0000000  -1.0000000   0.0000000), wk =   0.0277778
        k(   14) = (   0.6666667  -0.3333333   1.0000000), wk =   0.2222222
        k(   15) = (   0.5000000  -0.1666667   0.8333333), wk =   0.2222222
        k(   16) = (  -0.3333333  -1.0000000   0.0000000), wk =   0.1111111

     Dense  grid:     4015 G-vectors     FFT dimensions: (  24,  24,  24)

     Smooth grid:     1459 G-vectors     FFT dimensions: (  15,  15,  15)

     Estimated max dynamical RAM per process >       2.25 MB

     Estimated total dynamical RAM >       4.51 MB

     Initial potential from superposition of free atoms

     starting charge       2.9975, renormalised to       3.0000
     Starting wfcs are    4 randomized atomic wfcs +    2 random wfcs

     total cpu time spent up to now is        0.2 secs

     Self-consistent Calculation

     iteration #  1     ecut=    15.00 Ry     beta= 0.70
     Davidson diagonalization with overlap
     ethr =  1.00E-02,  avg # of iterations =  5.2

     Threshold (ethr) on eigenvalues was too large:
     Diagonalizing with lowered threshold

     Davidson diagonalization with overlap
     ethr =  2.06E-04,  avg # of iterations =  2.1

     total cpu time spent up to now is        0.2 secs

     total energy              =     -12.41783547 Ry
     estimated scf accuracy    <       0.00617231 Ry

     iteration #  2     ecut=    15.00 Ry     beta= 0.70
     Davidson diagonalization with overlap
     ethr =  2.06E-04,  avg # of iterations =  1.0

     total cpu time spent up to now is        0.2 secs

     total energy              =     -12.41795956 Ry
     estimated scf accuracy    <       0.00028300 Ry

     iteration #  3     ecut=    15.00 Ry     beta= 0.70
     Davidson diagonalization with overlap
     ethr =  9.43E-06,  avg # of iterations =  3.2

     total cpu time spent up to now is        0.2 secs

     total energy              =     -12.41798182 Ry
     estimated scf accuracy    <       0.00000075 Ry

     iteration #  4     ecut=    15.00 Ry     beta= 0.70
     Davidson diagonalization with overlap
     ethr =  2.50E-08,  avg # of iterations =  2.7

     total cpu time spent up to now is        0.2 secs

     total energy              =     -12.41798268 Ry
     estimated scf accuracy    <       0.00000007 Ry

     iteration #  5     ecut=    15.00 Ry     beta= 0.70
     Davidson diagonalization with overlap
     ethr =  2.28E-09,  avg # of iterations =  1.3

     total cpu time spent up to now is        0.2 secs

     End of self-consistent calculation

          k = 0.0000 0.0000 0.0000 (   169 PWs)   bands (ev):

    -4.5013  12.5617  12.5617  12.5617  14.0475  14.0475

          k =-0.1667 0.1667-0.1667 (   172 PWs)   bands (ev):

    -3.9617   8.5603  11.6579  11.6580  14.1837  15.2745

          k =-0.3333 0.3333-0.3333 (   183 PWs)   bands (ev):

    -2.3609   4.0609  11.0372  11.0372  13.8139  14.0583

          k = 0.5000-0.5000 0.5000 (   180 PWs)   bands (ev):

    -0.1778   0.8869  10.9379  10.9379  13.2481  13.2481

          k = 0.0000 0.3333 0.0000 (   173 PWs)   bands (ev):

    -3.7817  10.0731  10.0731  10.7306  11.6382  13.9294

          k =-0.1667 0.5000-0.1667 (   178 PWs)   bands (ev):

    -2.5326   5.9000   9.2680   9.4171  11.4817  14.2207

          k = 0.6667-0.3333 0.6667 (   178 PWs)   bands (ev):

    -0.3035   2.0488   7.9521   9.3895  11.3728  15.7463

          k = 0.5000-0.1667 0.5000 (   179 PWs)   bands (ev):

    -1.1355   3.2115   7.2065  10.3980  12.4727  15.0753

          k = 0.3333 0.0000 0.3333 (   172 PWs)   bands (ev):

    -3.0671   7.3833   7.4249  11.9681  14.5123  15.4411

          k = 0.0000 0.6667 0.0000 (   174 PWs)   bands (ev):

    -1.6411   6.4788   8.1602   8.1602   9.5574  10.4188

          k = 0.8333-0.1667 0.8333 (   184 PWs)   bands (ev):

     0.2778   4.0807   5.0082   7.9908   9.7488  12.9549

          k = 0.6667 0.0000 0.6667 (   186 PWs)   bands (ev):

     1.0417   3.3074   3.5230   8.7734  10.6114  17.3036

          k = 0.0000-1.0000 0.0000 (   190 PWs)   bands (ev):

     1.7789   1.9325   7.5106   7.5106   8.8416   9.5722

          k = 0.6667-0.3333 1.0000 (   178 PWs)   bands (ev):

    -0.9466   5.3403   5.3565   7.6150  13.6599  13.7007

          k = 0.5000-0.1667 0.8333 (   180 PWs)   bands (ev):

     1.2270   2.2342   5.4897   6.4623  13.7634  14.7521

          k =-0.3333-1.0000 0.0000 (   182 PWs)   bands (ev):

     2.3016   2.6207   4.6735   5.1828  13.0028  13.1783

     the Fermi energy is     3.6115 ev

!    total energy              =     -12.41798268 Ry
     estimated scf accuracy    <          1.1E-09 Ry
     smearing contrib. (-TS)   =      -0.00032248 Ry
     internal energy E=F+TS    =     -12.41766020 Ry

     The total energy is F=E-TS. E is the sum of the following terms:
     one-electron contribution =       1.95220212 Ry
     hartree contribution      =       0.02377020 Ry
     xc contribution           =      -9.80877040 Ry
     ewald contribution        =      -4.58486212 Ry

     convergence has been achieved in   5 iterations

     Forces acting on atoms (cartesian axes, Ry/au):

     atom    1 type  1   force =     0.00000000    0.00000000    0.00000000

     Total force =     0.000000     Total SCF correction =     0.000000


     Computing stress (Cartesian axis) and pressure

          total   stress  (Ry/bohr**3)                   (kbar)     P=     -121.08
  -0.00082308  -0.00000000   0.00000000         -121.08       -0.00        0.00
  -0.00000000  -0.00082308   0.00000000           -0.00     -121.08        0.00
   0.00000000   0.00000000  -0.00082308            0.00        0.00     -121.08


     Writing all to output data dir /Users/zhy/Aluminum-from-First-Principles/convergence-runs/cutoff-kmesh/ecut-015.0-ry_k-06x06x06_degauss-0.050-ry/qe-out/aluminum_ecut-015p0-ry_k-06x06x06_degauss-0p050-ry.save/ :
     XML data file, charge density, pseudopotentials, collected wavefunctions

     init_run     :      0.13s CPU      0.14s WALL (       1 calls)
     electrons    :      0.06s CPU      0.07s WALL (       1 calls)
     forces       :      0.00s CPU      0.00s WALL (       1 calls)
     stress       :      0.01s CPU      0.01s WALL (       1 calls)

     Called by init_run:
     wfcinit      :      0.00s CPU      0.00s WALL (       1 calls)
     potinit      :      0.02s CPU      0.02s WALL (       1 calls)
     hinit0       :      0.11s CPU      0.12s WALL (       1 calls)

     Called by electrons:
     c_bands      :      0.04s CPU      0.04s WALL (       6 calls)
     sum_band     :      0.01s CPU      0.01s WALL (       6 calls)
     v_of_rho     :      0.01s CPU      0.01s WALL (       6 calls)
     newd         :      0.00s CPU      0.00s WALL (       6 calls)
     mix_rho      :      0.00s CPU      0.00s WALL (       6 calls)

     Called by c_bands:
     init_us_2    :      0.00s CPU      0.00s WALL (     240 calls)
     cegterg      :      0.04s CPU      0.04s WALL (      96 calls)

     Called by *egterg:
     cdiaghg      :      0.01s CPU      0.01s WALL (     329 calls)
     h_psi        :      0.03s CPU      0.03s WALL (     361 calls)
     s_psi        :      0.00s CPU      0.00s WALL (     361 calls)
     g_psi        :      0.00s CPU      0.00s WALL (     249 calls)

     Called by h_psi:
     h_psi:calbec :      0.00s CPU      0.00s WALL (     361 calls)
     vloc_psi     :      0.03s CPU      0.03s WALL (     361 calls)
     add_vuspsi   :      0.00s CPU      0.00s WALL (     361 calls)

     General routines
     calbec       :      0.00s CPU      0.00s WALL (     729 calls)
     fft          :      0.10s CPU      0.10s WALL (     102 calls)
     ffts         :      0.01s CPU      0.01s WALL (      12 calls)
     fftw         :      0.03s CPU      0.03s WALL (    3658 calls)
     interpolate  :      0.01s CPU      0.01s WALL (       6 calls)

     Parallel routines

     PWSCF        :      0.21s CPU      0.23s WALL


   This run was terminated on:  23:45:12  22Sep2026            

=------------------------------------------------------------------------------=
   JOB DONE.
=------------------------------------------------------------------------------=
Note: The following floating-point exceptions are signalling: IEEE_UNDERFLOW_FLAG
Note: The following floating-point exceptions are signalling: IEEE_INVALID_FLAG IEEE_DIVIDE_BY_ZERO IEEE_UNDERFLOW_FLAG
